# LAMMPS data file for rigid bodies

3178 atoms

88  atom types

0 150 xlo xhi
0 150 ylo yhi
0 150 zlo zhi

Masses

1 79.90
2 12.01
3 12.01
4 12.01
5 12.01
6 12.01
7 12.01
8 12.01
9 12.01
10 12.01
11 12.01
12 12.01
13 12.01
14 12.01
15 12.01
16 12.01
17 12.01
18 12.01
19 12.01
20 12.01
21 12.01
22 12.01
23 12.01
24 12.01
25 12.01
26 12.01
27 12.01
28 12.01
29 12.01
30 12.01
31 12.01
32 40.08
33 19.00
34 1.008
35 1.008
36 1.008
37 1.008
38 1.008
39 1.008
40 1.008
41 1.008
42 1.008
43 1.008
44 1.008
45 1.008
46 1.008
47 126.9
48 35.45
49 22.99
50 24.305
51 14.01
52 14.01
53 14.01
54 14.01
55 14.01
56 14.01
57 14.01
58 14.01
59 14.01
60 16.00
61 16.00
62 16.00
63 16.00
64 16.00
65 16.00
66 30.97
67 32.06
68 32.06
69 63.55
70 55.00
71 39.10
72 85.47
73 132.91
74 131.0
75 0.0001
76 15.9994
77 1.0080
78 6.94
79 65.4
80 1.008
81 16.00
82 1.008
83 16.00
84 1.008
85 16.00
86 0.0001
87 0.0001
88 0.0001

Pair Coeffs

1 0.0586554 4.64693
2 0.086 3.39967
3 0.086 3.39967
4 0.086 3.39967
5 0.086 3.39967
6 0.086 3.39967
7 0.1094 3.39967
8 0.1094 3.39967
9 0.1094 3.39967
10 0.086 3.39967
11 0.086 3.39967
12 0.086 3.39967
13 0.086 3.39967
14 0.086 3.39967
15 0.086 3.39967
16 0.086 3.39967
17 0.086 3.39967
18 0.086 3.39967
19 0.086 3.39967
20 0.1094 3.39967
21 0.086 3.39967
22 0.086 3.39967
23 0.1094 3.39967
24 0.086 3.39967
25 0.086 3.39967
26 0.086 3.39967
27 0.086 3.39967
28 0.086 3.39967
29 0.1094 3.39967
30 0.1094 3.39967
31 0.1094 3.39967
32 0.45979 3.0524
33 0.00336401 4.10348
34 0.0157 1.06908
35 0 0
36 0.0157 1.06908
37 0.0157 2.64953
38 0.0157 2.47135
39 0.0157 2.29317
40 0.0157 2.11499
41 0.0157 1.95998
42 0.015 2.59964
43 0.015 2.51055
44 0.015 2.42146
45 0 0
46 0.015 2.59964
47 0.0536816 5.09595
48 0.0355911 4.47766
49 0.0874393 2.43928
50 0.00295 2.7698
51 0.17 3.25
52 0.17 3.25
53 0.17 3.25
54 0.17 3.25
55 0.17 3.25
56 0.17 3.25
57 0.17 3.25
58 0.17 3.25
59 0.17 3.25
60 0.21 2.95992
61 0.21 2.95992
62 0.1521 3.15061
63 0.2104 3.06647
64 0.17 3.00001
65 0.17 3.29633
66 0.2 3.74177
67 0.25 3.56359
68 0.25 3.56359
69 0.086 3.39967
70 0 0
71 0.193683 3.03797
72 0.327823 3.2304
73 0.406539 3.52084
74 0.1 8.90899
75 0 0
76 0.155504 3.16557
77 0 0
78 0.0279895 1.82634
79 0.0125 1.95998
80 0 0
81 0.16275 3.16435
82 0 0
83 0.155 3.15365
84 0 0
85 0.16 3.12
86 0 0
87 0 0
88 0 0

Atoms

1 1 56 0.1414	 -30.746   12.578   23.504
2 1 34 0.1997	 -31.476   13.068   23.984
3 1 34 0.1997	 -30.876   11.588   23.684
4 1 34 0.1997	 -29.856   12.898   23.854
5 1 23 0.0962	 -30.846   12.828   22.054
6 1 41 0.0889	 -30.636   13.888   21.884
7 1 20 -0.0597	 -29.816   11.998   21.274
8 1 37 0.03	 -29.836   12.278   20.224
9 1 37 0.03	 -28.816   12.188   21.654
10 1 37 0.03	 -30.046   10.938   21.374
11 1 2 0.6163	 -32.266   12.578   21.574
12 1 60 -0.5722	 -33.076   12.058   22.334
13 1 51 -0.4157	 -32.556   12.958   20.334
14 1 34 0.2719	 -31.836   13.398   19.784
15 1 23 -0.0031	 -33.826   12.708   19.654
16 1 38 0.085	 -34.576   12.308   20.354
17 1 30 -0.0036	 -34.346   14.048   19.094
18 1 37 0.0171	 -35.326   13.888   18.634
19 1 37 0.0171	 -33.676   14.418   18.314
20 1 30 -0.0645	 -34.436   15.118   20.204
21 1 37 0.0352	 -33.426   15.408   20.494
22 1 37 0.0352	 -34.916   14.678   21.074
23 1 2 0.6951	 -35.196   16.378   19.834
24 1 60 -0.6086	 -36.096   16.398   19.014
25 1 51 -0.9407	 -34.916   17.488   20.474
26 1 34 0.4251	 -34.236   17.508   21.224
27 1 34 0.4251	 -35.526   18.278   20.344
28 1 2 0.5973	 -33.566   11.668   18.564
29 1 60 -0.5679	 -32.776   11.958   17.664
30 1 51 -0.4157	 -34.116   10.448   18.714
31 1 34 0.2719	 -34.736   10.278   19.494
32 1 23 -0.0875	 -33.826    9.308   17.814
33 1 38 0.0969	 -33.456    9.708   16.874
34 1 31 0.2985	 -32.706    8.408   18.384
35 1 37 -0.0297	 -33.046    7.968   19.324
36 1 20 -0.3192	 -32.346    7.258   17.424
37 1 37 0.0791	 -31.526    6.678   17.844
38 1 37 0.0791	 -33.196    6.598   17.284
39 1 37 0.0791	 -32.036    7.668   16.454
40 1 20 -0.3192	 -31.416    9.188   18.664
41 1 37 0.0791	 -30.636    8.508   19.014
42 1 37 0.0791	 -31.066    9.678   17.754
43 1 37 0.0791	 -31.586    9.928   19.444
44 1 2 0.5973	 -35.056    8.448   17.474
45 1 60 -0.5679	 -35.736    7.908   18.364
46 1 51 -0.4157	 -35.256    8.228   16.174
47 1 34 0.2719	 -34.746    8.818   15.534
48 1 23 -0.0597	 -36.066    7.158   15.564
49 1 38 0.0869	 -36.436    6.488   16.344
50 1 31 0.1303	 -37.276    7.758   14.804
51 1 37 0.0187	 -36.876    8.428   14.034
52 1 20 -0.3204	 -38.076    6.648   14.094
53 1 37 0.0882	 -38.866    7.088   13.484
54 1 37 0.0882	 -37.446    6.078   13.414
55 1 37 0.0882	 -38.516    5.978   14.834
56 1 30 -0.043	 -38.226    8.598   15.684
57 1 37 0.0236	 -37.646    9.298   16.284
58 1 37 0.0236	 -38.766    7.948   16.374
59 1 20 -0.066	 -39.226    9.428   14.864
60 1 37 0.0186	 -39.676   10.188   15.494
61 1 37 0.0186	 -38.716    9.918   14.034
62 1 37 0.0186	 -40.016    8.788   14.464
63 1 2 0.5973	 -35.156    6.378   14.604
64 1 60 -0.5679	 -34.726    6.918   13.584
65 1 51 -0.4157	 -34.856    5.108   14.904
66 1 34 0.2719	 -35.166    4.728   15.784
67 1 23 0.0143	 -33.986    4.278   14.054
68 1 38 0.1048	 -33.886    4.768   13.084
69 1 30 -0.2041	 -32.556    4.218   14.664
70 1 37 0.0797	 -32.256    5.198   15.014
71 1 37 0.0797	 -31.866    3.928   13.874
72 1 2 0.713	 -32.416    3.208   15.794
73 1 60 -0.5931	 -33.376    2.628   16.284
74 1 51 -0.9191	 -31.216    2.948   16.264
75 1 34 0.4196	 -30.386    3.398   15.904
76 1 34 0.4196	 -31.136    2.318   17.044
77 1 2 0.5973	 -34.536    2.878   13.724
78 1 60 -0.5679	 -33.826    2.098   13.104
79 1 51 -0.4157	 -35.756    2.538   14.154
80 1 34 0.2719	 -36.316    3.218   14.634
81 1 23 -0.0389	 -36.356    1.208   13.914
82 1 38 0.1007	 -35.566    0.468   13.934
83 1 31 0.3654	 -37.366    0.828   15.014
84 1 38 0.0043	 -37.666   -0.202   14.854
85 1 20 -0.2438	 -36.786    0.948   16.414
86 1 37 0.0642	 -37.486    0.538   17.144
87 1 37 0.0642	 -35.856    0.378   16.474
88 1 37 0.0642	 -36.586    1.988   16.674
89 1 63 -0.6761	 -38.526    1.638   14.984
90 1 35 0.4102	 -39.056    1.348   15.734
91 1 2 0.5973	 -37.006    1.138   12.534
92 1 60 -0.5679	 -37.466    2.158   12.014
93 1 51 -0.4157	 -37.096   -0.062   11.934
94 1 34 0.2719	 -36.696   -0.872   12.394
95 1 23 -0.0024	 -37.736   -0.262   10.614
96 1 38 0.0978	 -37.146    0.258    9.854
97 1 20 -0.0343	 -37.806   -1.752   10.274
98 1 37 0.0295	 -38.546   -1.892    9.484
99 1 37 0.0295	 -38.146   -2.302   11.144
100 1 3 0.0118	 -36.516   -2.362    9.764
101 1 3 -0.1256	 -35.946   -1.882    8.574
102 1 42 0.133	 -36.426   -1.092    8.024
103 1 3 -0.1704	 -34.726   -2.402    8.124
104 1 42 0.143	 -34.276   -2.012    7.224
105 1 3 -0.1072	 -34.096   -3.442    8.814
106 1 42 0.1297	 -33.156   -3.852    8.454
107 1 3 -0.1704	 -34.666   -3.942    9.994
108 1 42 0.143	 -34.166   -4.732   10.544
109 1 3 -0.1256	 -35.876   -3.402   10.474
110 1 42 0.133	 -36.296   -3.782   11.394
111 1 2 0.5973	 -39.146    0.328   10.574
112 1 60 -0.5679	 -39.456    1.118    9.684
113 1 51 -0.5163	 -39.976   -0.002   11.564
114 1 34 0.2936	 -39.666   -0.672   12.254
115 1 23 0.0381	 -41.336    0.538   11.664
116 1 38 0.088	 -41.836    0.388   10.714
117 1 30 -0.0303	 -42.106   -0.212   12.754
118 1 37 -0.0122	 -43.006    0.358   13.004
119 1 37 -0.0122	 -41.496   -0.292   13.654
120 1 15 0.7994	 -42.526   -1.592   12.264
121 1 61 -0.8014	 -43.196   -1.672   11.214
122 1 61 -0.8014	 -42.126   -2.592   12.904
123 1 2 0.5366	 -41.356    2.048   11.924
124 1 60 -0.5819	 -42.036    2.768   11.204
125 1 51 -0.4157	 -40.556    2.538   12.874
126 1 34 0.2719	 -39.946    1.908   13.374
127 1 23 -0.0252	 -40.556    3.948   13.224
128 1 38 0.0698	 -39.836    4.108   14.034
129 1 38 0.0698	 -41.546    4.248   13.554
130 1 2 0.5973	 -40.136    4.848   12.064
131 1 60 -0.5679	 -40.756    5.888   11.854
132 1 51 -0.4157	 -39.116    4.448   11.304
133 1 34 0.2719	 -38.656    3.578   11.524
134 1 23 -0.0875	 -38.646    5.198   10.134
135 1 38 0.0969	 -38.656    6.258   10.384
136 1 31 0.2985	 -37.196    4.828    9.764
137 1 37 -0.0297	 -37.156    3.768    9.484
138 1 20 -0.3192	 -36.676    5.668    8.594
139 1 37 0.0791	 -35.626    5.448    8.414
140 1 37 0.0791	 -37.226    5.448    7.684
141 1 37 0.0791	 -36.776    6.728    8.814
142 1 20 -0.3192	 -36.236    5.078   10.934
143 1 37 0.0791	 -35.236    4.748   10.644
144 1 37 0.0791	 -36.216    6.138   11.184
145 1 37 0.0791	 -36.536    4.498   11.814
146 1 2 0.5973	 -39.596    5.028    8.944
147 1 60 -0.5679	 -39.856    6.018    8.254
148 1 51 -0.4157	 -40.196    3.848    8.734
149 1 34 0.2719	 -39.956    3.058    9.324
150 1 23 0.0337	 -41.206    3.648    7.694
151 1 38 0.0823	 -40.766    3.938    6.744
152 1 20 -0.1825	 -41.576    2.158    7.624
153 1 37 0.0603	 -42.306    2.008    6.824
154 1 37 0.0603	 -40.696    1.558    7.404
155 1 37 0.0603	 -41.996    1.828    8.574
156 1 2 0.5973	 -42.456    4.518    7.934
157 1 60 -0.5679	 -42.846    5.268    7.044
158 1 51 -0.5163	 -43.006    4.468    9.154
159 1 34 0.2936	 -42.626    3.818    9.824
160 1 23 0.0381	 -44.156    5.278    9.574
161 1 38 0.088	 -44.996    5.068    8.914
162 1 30 -0.0303	 -44.566    4.918   11.024
163 1 37 -0.0122	 -45.416    5.548   11.304
164 1 37 -0.0122	 -43.746    5.178   11.694
165 1 15 0.7994	 -44.966    3.458   11.284
166 1 61 -0.8014	 -45.326    2.738   10.324
167 1 61 -0.8014	 -44.926    3.028   12.464
168 1 2 0.5366	 -43.856    6.788    9.484
169 1 60 -0.5819	 -44.726    7.578    9.124
170 1 51 -0.4157	 -42.616    7.198    9.804
171 1 34 0.2719	 -41.946    6.508   10.114
172 1 23 -0.0014	 -42.186    8.598    9.724
173 1 38 0.0876	 -42.956    9.208   10.184
174 1 20 -0.0152	 -40.896    8.808   10.534
175 1 37 0.0295	 -40.046    8.388    9.994
176 1 37 0.0295	 -40.986    8.268   11.474
177 1 3 -0.0011	 -40.626   10.248   10.894
178 1 3 -0.1906	 -39.896   11.078   10.024
179 1 42 0.1699	 -39.496   10.678    9.104
180 1 3 -0.2341	 -39.706   12.438   10.334
181 1 42 0.1656	 -39.126   13.068    9.684
182 1 2 0.3226	 -40.266   12.988   11.504
183 1 63 -0.5579	 -40.076   14.298   11.794
184 1 35 0.3992	 -40.386   14.548   12.664
185 1 3 -0.2341	 -40.956   12.138   12.404
186 1 42 0.1656	 -41.366   12.538   13.314
187 1 3 -0.1906	 -41.126   10.778   12.094
188 1 42 0.1699	 -41.676   10.138   12.784
189 1 2 0.5973	 -42.026    9.078    8.274
190 1 60 -0.5679	 -42.576   10.138    7.934
191 1 51 -0.4157	 -41.386    8.288    7.404
192 1 34 0.2719	 -40.976    7.438    7.734
193 1 23 -0.0518	 -41.296    8.578    5.964
194 1 38 0.0922	 -40.806    9.538    5.824
195 1 30 -0.1102	 -40.496    7.478    5.234
196 1 37 0.0457	 -40.706    7.538    4.164
197 1 37 0.0457	 -40.836    6.508    5.584
198 1 31 0.3531	 -38.966    7.568    5.424
199 1 37 -0.0361	 -38.726    7.748    6.464
200 1 20 -0.4121	 -38.326    6.248    4.974
201 1 37 0.1	 -37.236    6.318    5.074
202 1 37 0.1	 -38.686    5.438    5.594
203 1 37 0.1	 -38.576    6.048    3.934
204 1 20 -0.4121	 -38.366    8.678    4.554
205 1 37 0.1	 -37.306    8.788    4.794
206 1 37 0.1	 -38.456    8.418    3.504
207 1 37 0.1	 -38.886    9.618    4.734
208 1 2 0.5973	 -42.696    8.708    5.354
209 1 60 -0.5679	 -42.986    9.718    4.734
210 1 51 -0.4157	 -43.586    7.738    5.604
211 1 34 0.2719	 -43.276    6.938    6.144
212 1 23 -0.0031	 -44.976    7.758    5.134
213 1 38 0.085	 -44.996    7.728    4.044
214 1 30 -0.0036	 -45.716    6.548    5.704
215 1 37 0.0171	 -46.686    6.858    6.084
216 1 37 0.0171	 -45.176    6.158    6.564
217 1 30 -0.0645	 -45.966    5.428    4.704
218 1 37 0.0352	 -45.026    5.038    4.324
219 1 37 0.0352	 -46.566    5.808    3.874
220 1 2 0.6951	 -46.716    4.308    5.414
221 1 60 -0.6086	 -46.276    3.828    6.444
222 1 51 -0.9407	 -47.866    3.898    4.954
223 1 34 0.4251	 -48.326    4.398    4.194
224 1 34 0.4251	 -48.366    3.258    5.554
225 1 2 0.5973	 -45.726    9.018    5.564
226 1 60 -0.5679	 -46.466    9.598    4.764
227 1 51 -0.4157	 -45.616    9.398    6.834
228 1 34 0.2719	 -45.016    8.848    7.434
229 1 23 -0.0389	 -46.456   10.448    7.444
230 1 38 0.1007	 -47.476   10.368    7.054
231 1 31 0.3654	 -46.506   10.258    8.964
232 1 38 0.0043	 -45.496   10.328    9.364
233 1 20 -0.2438	 -47.376   11.308    9.654
234 1 37 0.0642	 -47.526   11.028   10.694
235 1 37 0.0642	 -46.886   12.278    9.614
236 1 37 0.0642	 -48.346   11.368    9.144
237 1 63 -0.6761	 -47.026    8.998    9.294
238 1 35 0.4102	 -46.326    8.358    9.134
239 1 2 0.5973	 -45.956   11.858    7.114
240 1 60 -0.5679	 -46.766   12.768    6.934
241 1 51 -0.4157	 -44.636   12.038    7.084
242 1 34 0.2719	 -44.036   11.248    7.274
243 1 23 -0.0014	 -43.996   13.358    6.994
244 1 38 0.0876	 -44.766   14.128    7.044
245 1 20 -0.0152	 -43.096   13.558    8.234
246 1 37 0.0295	 -42.656   14.548    8.184
247 1 37 0.0295	 -42.276   12.828    8.194
248 1 3 -0.0011	 -43.836   13.428    9.554
249 1 3 -0.1906	 -44.746   14.428    9.944
250 1 42 0.1699	 -44.926   15.268    9.294
251 1 3 -0.2341	 -45.456   14.308   11.144
252 1 42 0.1656	 -46.196   15.048   11.424
253 1 2 0.3226	 -45.266   13.178   11.974
254 1 63 -0.5579	 -45.966   13.088   13.134
255 1 35 0.3992	 -45.916   12.228   13.554
256 1 3 -0.2341	 -44.356   12.168   11.584
257 1 42 0.1656	 -44.216   11.308   12.214
258 1 3 -0.1906	 -43.646   12.298   10.374
259 1 42 0.1699	 -42.946   11.538   10.074
260 1 2 0.5973	 -43.246   13.588    5.674
261 1 60 -0.5679	 -42.846   14.728    5.414
262 1 51 -0.4157	 -43.076   12.558    4.844
263 1 34 0.2719	 -43.436   11.658    5.124
264 1 23 -0.0581	 -42.346   12.588    3.564
265 1 38 0.136	 -42.246   11.558    3.214
266 1 20 -0.0074	 -43.186   13.308    2.484
267 1 37 0.0367	 -42.526   13.538    1.644
268 1 37 0.0367	 -43.556   14.248    2.894
269 1 5 0.1868	 -44.356   12.538    1.934
270 1 53 -0.5432	 -45.096   12.938    0.814
271 1 18 0.1635	 -46.086   12.028    0.694
272 1 44 0.1435	 -46.866   12.058   -0.056
273 1 52 -0.2795	 -45.986   11.088    1.644
274 1 34 0.3339	 -46.636   10.338    1.804
275 1 22 -0.2207	 -44.906   11.388    2.434
276 1 43 0.1862	 -44.576   10.838    3.304
277 1 2 0.5973	 -40.896   13.078    3.694
278 1 60 -0.5679	 -40.346   13.788    2.844
279 1 51 -0.3479	 -40.246   12.678    4.794
280 1 34 0.2747	 -40.766   12.098    5.444
281 1 23 -0.24	 -38.836   12.938    5.114
282 1 38 0.1426	 -38.256   12.858    4.194
283 1 29 -0.0094	 -38.676   14.358    5.684
284 1 37 0.0362	 -38.966   15.088    4.924
285 1 37 0.0362	 -37.626   14.528    5.924
286 1 29 0.0187	 -39.516   14.588    6.954
287 1 37 0.0103	 -39.256   13.838    7.694
288 1 37 0.0103	 -40.576   14.508    6.714
289 1 29 -0.0479	 -39.246   15.968    7.544
290 1 37 0.0621	 -39.496   16.738    6.824
291 1 37 0.0621	 -38.176   16.028    7.784
292 1 29 -0.0143	 -40.046   16.168    8.834
293 1 41 0.1135	 -39.906   15.298    9.474
294 1 41 0.1135	 -41.106   16.248    8.584
295 1 56 -0.3854	 -39.576   17.378    9.534
296 1 34 0.34	 -40.076   17.548   10.394
297 1 34 0.34	 -38.596   17.308    9.764
298 1 34 0.34	 -39.676   18.208    8.964
299 1 2 0.7341	 -38.296   11.898    6.084
300 1 60 -0.5894	 -39.066   11.238    6.774
301 1 51 -0.4157	 -36.966   11.758    6.164
302 1 34 0.2719	 -36.396   12.378    5.604
303 1 23 -0.0518	 -36.326   11.008    7.244
304 1 38 0.0922	 -36.846   10.058    7.354
305 1 30 -0.1102	 -34.846   10.738    6.904
306 1 37 0.0457	 -34.306   10.508    7.814
307 1 37 0.0457	 -34.416   11.648    6.494
308 1 31 0.3531	 -34.606    9.588    5.904
309 1 37 -0.0361	 -35.186    9.758    5.004
310 1 20 -0.4121	 -33.126    9.548    5.534
311 1 37 0.1	 -32.946    8.728    4.834
312 1 37 0.1	 -32.846   10.478    5.044
313 1 37 0.1	 -32.516    9.398    6.424
314 1 20 -0.4121	 -34.966    8.218    6.494
315 1 37 0.1	 -34.746    7.438    5.754
316 1 37 0.1	 -34.376    8.028    7.384
317 1 37 0.1	 -36.026    8.168    6.734
318 1 2 0.5973	 -36.436   11.768    8.594
319 1 60 -0.5679	 -36.546   12.998    8.584
320 1 51 -0.2548	 -36.376   11.078    9.744
321 1 20 0.0192	 -36.516    9.628    9.864
322 1 38 0.0391	 -35.576    9.148    9.594
323 1 38 0.0391	 -37.316    9.248    9.234
324 1 20 0.0189	 -36.846    9.358   11.324
325 1 37 0.0213	 -36.416    8.418   11.664
326 1 37 0.0213	 -37.936    9.348   11.454
327 1 20 -0.007	 -36.246   10.548   12.064
328 1 37 0.0253	 -35.236   10.278   12.374
329 1 37 0.0253	 -36.836   10.818   12.944
330 1 23 -0.0266	 -36.186   11.698   11.054
331 1 38 0.0641	 -37.006   12.398   11.234
332 1 2 0.5896	 -34.846   12.448   11.184
333 1 60 -0.5748	 -33.826   11.948   10.724
334 1 51 -0.5163	 -34.796   13.578   11.884
335 1 34 0.2936	 -35.636   13.898   12.344
336 1 23 0.0381	 -33.596   14.438   12.004
337 1 38 0.088	 -33.286   14.698   10.984
338 1 30 -0.0303	 -33.936   15.748   12.734
339 1 37 -0.0122	 -33.046   16.378   12.734
340 1 37 -0.0122	 -34.136   15.498   13.774
341 1 15 0.7994	 -35.106   16.588   12.184
342 1 61 -0.8014	 -35.116   16.948   10.974
343 1 61 -0.8014	 -35.976   16.968   13.014
344 1 2 0.5366	 -32.366   13.788   12.694
345 1 60 -0.5819	 -31.326   14.438   12.844
346 1 51 -0.4157	 -32.436   12.528   13.144
347 1 34 0.2719	 -33.296   12.028   13.014
348 1 23 0.0143	 -31.236   11.748   13.524
349 1 38 0.1048	 -30.546   12.438   14.024
350 1 30 -0.2041	 -31.566   10.668   14.574
351 1 37 0.0797	 -31.926   11.158   15.474
352 1 37 0.0797	 -30.656   10.128   14.834
353 1 2 0.713	 -32.626    9.678   14.144
354 1 60 -0.5931	 -33.806    9.908   14.334
355 1 51 -0.9191	 -32.266    8.538   13.604
356 1 34 0.4196	 -31.296    8.348   13.394
357 1 34 0.4196	 -33.006    7.918   13.344
358 1 2 0.5973	 -30.456   11.188   12.334
359 1 60 -0.5679	 -29.406   10.578   12.554
360 1 51 -0.4157	 -30.896   11.388   11.094
361 1 34 0.2719	 -31.776   11.858   10.944
362 1 23 -0.0014	 -30.126   11.008    9.904
363 1 38 0.0876	 -29.436   10.218   10.184
364 1 20 -0.0152	 -31.056   10.398    8.854
365 1 37 0.0295	 -30.506   10.258    7.924
366 1 37 0.0295	 -31.896   11.068    8.664
367 1 3 -0.0011	 -31.566    9.048    9.314
368 1 3 -0.1906	 -30.706    7.938    9.264
369 1 42 0.1699	 -29.716    8.048    8.844
370 1 3 -0.2341	 -31.106    6.708    9.804
371 1 42 0.1656	 -30.436    5.858    9.764
372 1 2 0.3226	 -32.366    6.578   10.414
373 1 63 -0.5579	 -32.736    5.418   10.994
374 1 35 0.3992	 -33.686    5.318   10.994
375 1 3 -0.2341	 -33.236    7.678   10.454
376 1 42 0.1656	 -34.196    7.598   10.954
377 1 3 -0.1906	 -32.836    8.908    9.904
378 1 42 0.1699	 -33.486    9.768    9.964
379 1 2 0.5973	 -29.266   12.148    9.354
380 1 60 -0.5679	 -29.646   13.328    9.354
381 1 51 -0.4157	 -28.076   11.768    8.874
382 1 34 0.2719	 -27.826   10.798    8.954
383 1 23 -0.0597	 -27.106   12.608    8.154
384 1 38 0.0869	 -27.636   13.458    7.714
385 1 31 0.1303	 -26.006   13.168    9.094
386 1 37 0.0187	 -25.436   13.888    8.514
387 1 20 -0.3204	 -26.646   13.928   10.274
388 1 37 0.0882	 -25.896   14.438   10.874
389 1 37 0.0882	 -27.356   14.658    9.894
390 1 37 0.0882	 -27.186   13.228   10.914
391 1 30 -0.043	 -25.016   12.098    9.604
392 1 37 0.0236	 -24.586   11.558    8.754
393 1 37 0.0236	 -25.536   11.378   10.234
394 1 20 -0.066	 -23.836   12.688   10.384
395 1 37 0.0186	 -23.136   11.898   10.644
396 1 37 0.0186	 -23.326   13.438    9.774
397 1 37 0.0186	 -24.176   13.148   11.314
398 1 2 0.5973	 -26.526   11.788    7.004
399 1 60 -0.5679	 -26.376   10.568    7.134
400 1 51 -0.4157	 -26.196   12.408    5.874
401 1 34 0.2719	 -26.296   13.408    5.804
402 1 23 -0.0389	 -25.616   11.658    4.744
403 1 38 0.1007	 -26.146   10.718    4.644
404 1 31 0.3654	 -25.786   12.408    3.424
405 1 38 0.0043	 -25.296   11.848    2.624
406 1 20 -0.2438	 -27.266   12.538    3.054
407 1 37 0.0642	 -27.376   13.028    2.094
408 1 37 0.0642	 -27.696   11.538    2.984
409 1 37 0.0642	 -27.806   13.098    3.824
410 1 63 -0.6761	 -25.216   13.698    3.494
411 1 35 0.4102	 -25.696   14.258    2.894
412 1 2 0.5973	 -24.146   11.308    4.964
413 1 60 -0.5679	 -23.466   11.878    5.834
414 1 51 -0.3479	 -23.626   10.388    4.154
415 1 34 0.2747	 -24.246    9.948    3.494
416 1 23 -0.24	 -22.206    9.998    4.144
417 1 38 0.1426	 -21.956    9.498    5.084
418 1 29 -0.0094	 -21.956    9.028    2.984
419 1 37 0.0362	 -20.896    8.778    2.974
420 1 37 0.0362	 -22.196    9.528    2.054
421 1 29 0.0187	 -22.756    7.718    3.064
422 1 37 0.0103	 -23.816    7.918    3.194
423 1 37 0.0103	 -22.426    7.168    3.954
424 1 29 -0.0479	 -22.556    6.878    1.784
425 1 37 0.0621	 -21.486    6.798    1.554
426 1 37 0.0621	 -23.056    7.378    0.964
427 1 29 -0.0143	 -23.126    5.468    1.964
428 1 41 0.1135	 -24.136    5.558    2.374
429 1 41 0.1135	 -22.516    4.928    2.694
430 1 56 -0.3854	 -23.176    4.688    0.714
431 1 34 0.34	 -23.556    3.778    0.914
432 1 34 0.34	 -23.816    5.108    0.054
433 1 34 0.34	 -22.256    4.538    0.324
434 1 2 0.7341	 -21.276   11.208    4.024
435 1 60 -0.5894	 -20.326   11.348    4.814
436 1 51 -0.4157	 -21.556   12.138    3.104
437 1 34 0.2719	 -22.346   11.978    2.494
438 1 23 -0.0249	 -20.746   13.338    2.914
439 1 38 0.0843	 -19.706   13.028    2.854
440 1 30 0.2117	 -21.096   14.028    1.594
441 1 38 0.0352	 -21.276   13.278    0.824
442 1 38 0.0352	 -20.236   14.628    1.274
443 1 63 -0.6546	 -22.216   14.888    1.704
444 1 35 0.4275	 -21.966   15.738    1.344
445 1 2 0.5973	 -20.846   14.328    4.084
446 1 60 -0.5679	 -19.856   14.978    4.414
447 1 51 -0.5163	 -22.016   14.428    4.734
448 1 34 0.2936	 -22.796   13.878    4.404
449 1 23 0.0397	 -22.216   15.228    5.954
450 1 38 0.1105	 -21.836   16.228    5.784
451 1 30 0.056	 -23.716   15.348    6.294
452 1 37 -0.0173	 -23.816   15.708    7.324
453 1 37 -0.0173	 -24.176   14.358    6.244
454 1 30 0.0136	 -24.476   16.318    5.374
455 1 37 -0.0425	 -24.276   16.048    4.334
456 1 37 -0.0425	 -24.066   17.318    5.534
457 1 15 0.8054	 -25.996   16.368    5.604
458 1 61 -0.8188	 -26.486   15.728    6.564
459 1 61 -0.8188	 -26.686   17.098    4.854
460 1 2 0.5366	 -21.416   14.658    7.144
461 1 60 -0.5819	 -20.716   15.408    7.824
462 1 51 -0.4157	 -21.446   13.338    7.344
463 1 34 0.2719	 -22.046   12.778    6.754
464 1 23 0.0337	 -20.656   12.658    8.364
465 1 38 0.0823	 -20.886   13.088    9.334
466 1 20 -0.1825	 -21.086   11.188    8.364
467 1 37 0.0603	 -20.506   10.638    9.104
468 1 37 0.0603	 -22.146   11.108    8.614
469 1 37 0.0603	 -20.936   10.748    7.384
470 1 2 0.5973	 -19.136   12.808    8.134
471 1 60 -0.5679	 -18.396   13.108    9.074
472 1 51 -0.4157	 -18.666   12.658    6.894
473 1 34 0.2719	 -19.306   12.368    6.174
474 1 23 -0.0031	 -17.246   12.818    6.554
475 1 38 0.085	 -16.656   12.208    7.224
476 1 30 -0.0036	 -16.996   12.328    5.114
477 1 37 0.0171	 -16.006   12.648    4.804
478 1 37 0.0171	 -17.736   12.768    4.444
479 1 30 -0.0645	 -17.056   10.788    5.064
480 1 37 0.0352	 -18.016   10.458    5.454
481 1 37 0.0352	 -16.276   10.388    5.704
482 1 2 0.6951	 -16.896   10.158    3.684
483 1 60 -0.6086	 -16.756    8.958    3.574
484 1 51 -0.9407	 -16.886   10.898    2.594
485 1 34 0.4251	 -16.946   11.898    2.624
486 1 34 0.4251	 -16.766   10.378    1.724
487 1 2 0.5973	 -16.756   14.268    6.734
488 1 60 -0.5679	 -15.616   14.468    7.164
489 1 51 -0.4157	 -17.606   15.278    6.514
490 1 34 0.2719	 -18.516   15.078    6.134
491 1 23 0.0337	 -17.266   16.658    6.864
492 1 38 0.0823	 -16.346   16.928    6.364
493 1 20 -0.1825	 -18.376   17.588    6.374
494 1 37 0.0603	 -18.086   18.618    6.544
495 1 37 0.0603	 -18.526   17.438    5.304
496 1 37 0.0603	 -19.296   17.368    6.914
497 1 2 0.5973	 -17.036   16.828    8.384
498 1 60 -0.5679	 -16.056   17.448    8.794
499 1 51 -0.4157	 -17.876   16.198    9.214
500 1 34 0.2719	 -18.646   15.688    8.804
501 1 23 -0.0518	 -17.726   16.148   10.674
502 1 38 0.0922	 -17.516   17.158   11.024
503 1 30 -0.1102	 -19.056   15.678   11.304
504 1 37 0.0457	 -18.916   15.558   12.384
505 1 37 0.0457	 -19.296   14.688   10.914
506 1 31 0.3531	 -20.266   16.608   11.074
507 1 37 -0.0361	 -20.446   16.708   10.004
508 1 20 -0.4121	 -21.516   16.008   11.714
509 1 37 0.1	 -22.366   16.668   11.554
510 1 37 0.1	 -21.726   15.038   11.264
511 1 37 0.1	 -21.356   15.878   12.784
512 1 20 -0.4121	 -20.076   18.018   11.654
513 1 37 0.1	 -20.966   18.608   11.454
514 1 37 0.1	 -19.936   17.958   12.734
515 1 37 0.1	 -19.226   18.508   11.194
516 1 2 0.5973	 -16.516   15.308   11.144
517 1 60 -0.5679	 -16.216   15.298   12.334
518 1 51 -0.4157	 -15.786   14.638   10.244
519 1 34 0.2719	 -16.066   14.698    9.274
520 1 23 -0.0252	 -14.586   13.858   10.544
521 1 38 0.0698	 -14.086   14.268   11.434
522 1 38 0.0698	 -13.896   13.948    9.704
523 1 2 0.5973	 -14.826   12.358   10.784
524 1 60 -0.5679	 -13.996   11.698   11.414
525 1 51 -0.4157	 -15.966   11.838   10.314
526 1 34 0.2719	 -16.626   12.438    9.844
527 1 23 -0.0275	 -16.236   10.398   10.304
528 1 38 0.1123	 -16.046   10.008   11.314
529 1 20 -0.005	 -17.696   10.108    9.964
530 1 37 0.0339	 -17.906   10.558    8.994
531 1 37 0.0339	 -18.356   10.568   10.694
532 1 26 -0.1415	 -18.046    8.658    9.864
533 1 22 -0.1638	 -17.796    7.698   10.784
534 1 43 0.2062	 -17.306    7.868   11.724
535 1 52 -0.3418	 -18.256    6.478   10.324
536 1 34 0.3412	 -18.186    5.618   10.844
537 1 14 0.138	 -18.836    6.588    9.074
538 1 3 -0.2601	 -19.426    5.668    8.204
539 1 42 0.1572	 -19.496    4.628    8.474
540 1 3 -0.1134	 -19.916    6.118    6.974
541 1 42 0.1417	 -20.346    5.418    6.284
542 1 3 -0.1972	 -19.806    7.478    6.624
543 1 42 0.1447	 -20.176    7.838    5.674
544 1 3 -0.2387	 -19.196    8.388    7.504
545 1 42 0.17	 -19.086    9.428    7.204
546 1 4 0.1243	 -18.706    7.978    8.754
547 1 2 0.5973	 -15.316    9.668    9.324
548 1 60 -0.5679	 -15.216   10.018    8.144
549 1 51 -0.4157	 -14.686    8.608    9.814
550 1 34 0.2719	 -14.846    8.378   10.784
551 1 23 -0.0875	 -13.856    7.678    9.054
552 1 38 0.0969	 -13.916    7.898    7.984
553 1 31 0.2985	 -12.386    7.788    9.504
554 1 37 -0.0297	 -12.346    7.558   10.574
555 1 20 -0.3192	 -11.456    6.808    8.784
556 1 37 0.0791	 -10.456    6.878    9.194
557 1 37 0.0791	 -11.806    5.788    8.904
558 1 37 0.0791	 -11.416    7.058    7.724
559 1 20 -0.3192	 -11.826    9.198    9.304
560 1 37 0.0791	 -10.766    9.228    9.544
561 1 37 0.0791	 -11.956    9.498    8.264
562 1 37 0.0791	 -12.356    9.918    9.944
563 1 2 0.5973	 -14.426    6.298    9.314
564 1 60 -0.5679	 -14.306    5.788   10.434
565 1 51 -0.4157	 -15.056    5.698    8.304
566 1 34 0.2719	 -15.216    6.208    7.444
567 1 23 0.0337	 -15.806    4.438    8.444
568 1 38 0.0823	 -16.736    4.648    8.964
569 1 20 -0.1825	 -16.156    3.958    7.034
570 1 37 0.0603	 -16.696    3.008    7.114
571 1 37 0.0603	 -16.796    4.678    6.544
572 1 37 0.0603	 -15.256    3.808    6.444
573 1 2 0.5973	 -15.056    3.348    9.234
574 1 60 -0.5679	 -15.636    2.768   10.154
575 1 51 -0.4157	 -13.766    3.158    8.954
576 1 34 0.2719	 -13.386    3.668    8.164
577 1 23 -0.0249	 -12.896    2.158    9.574
578 1 38 0.0843	 -13.376    1.178    9.514
579 1 30 0.2117	 -11.596    2.108    8.784
580 1 38 0.0352	 -11.836    2.008    7.724
581 1 38 0.0352	 -11.016    1.238    9.104
582 1 63 -0.6546	 -10.856    3.288    9.034
583 1 35 0.4275	  -9.926    3.048    9.024
584 1 2 0.5973	 -12.496    2.428   11.034
585 1 60 -0.5679	 -12.266    1.498   11.804
586 1 51 -0.3479	 -12.416    3.708   11.444
587 1 34 0.2747	 -12.586    4.418   10.754
588 1 23 -0.24	 -12.266    4.078   12.854
589 1 38 0.1426	 -11.506    3.438   13.314
590 1 29 -0.0094	 -11.856    5.538   13.014
591 1 37 0.0362	 -11.856    5.778   14.074
592 1 37 0.0362	 -12.586    6.178   12.514
593 1 29 0.0187	 -10.446    5.828   12.454
594 1 37 0.0103	 -10.466    5.828   11.374
595 1 37 0.0103	  -9.766    5.038   12.784
596 1 29 -0.0479	  -9.896    7.168   12.964
597 1 37 0.0621	  -8.886    7.278   12.564
598 1 37 0.0621	  -9.836    7.138   14.054
599 1 29 -0.0143	 -10.746    8.368   12.534
600 1 41 0.1135	 -11.756    8.228   12.894
601 1 41 0.1135	 -10.766    8.378   11.444
602 1 56 -0.3854	 -10.196    9.648   13.014
603 1 34 0.34	 -10.836   10.418   12.834
604 1 34 0.34	 -10.006    9.658   14.004
605 1 34 0.34	  -9.326    9.888   12.574
606 1 2 0.7341	 -13.566    3.808   13.614
607 1 60 -0.5894	 -13.546    3.648   14.824
608 1 51 -0.4157	 -14.696    3.778   12.894
609 1 34 0.2719	 -14.636    3.898   11.894
610 1 23 -0.0252	 -15.996    3.488   13.494
611 1 38 0.0698	 -15.816    2.688   14.204
612 1 38 0.0698	 -16.696    3.158   12.724
613 1 2 0.5973	 -16.596    4.658   14.274
614 1 60 -0.5679	 -17.516    4.488   15.064
615 1 51 -0.4157	 -16.036    5.858   14.094
616 1 34 0.2719	 -15.356    5.938   13.354
617 1 23 0.0143	 -16.146    6.978   15.014
618 1 38 0.1048	 -16.226    6.568   16.024
619 1 30 -0.2041	 -14.826    7.788   14.964
620 1 37 0.0797	 -13.986    7.108   15.144
621 1 37 0.0797	 -14.836    8.508   15.774
622 1 2 0.713	 -14.586    8.538   13.664
623 1 60 -0.5931	 -14.976    8.108   12.594
624 1 51 -0.9191	 -13.916    9.668   13.704
625 1 34 0.4196	 -13.676   10.068   14.594
626 1 34 0.4196	 -13.936   10.238   12.864
627 1 2 0.5973	 -17.406    7.838   14.814
628 1 60 -0.5679	 -17.416    8.998   15.214
629 1 51 -0.4157	 -18.476    7.328   14.184
630 1 34 0.2719	 -18.466    6.358   13.914
631 1 23 -0.0518	 -19.646    8.168   13.864
632 1 38 0.0922	 -19.286    9.018   13.284
633 1 30 -0.1102	 -20.676    7.428   12.994
634 1 37 0.0457	 -21.076    6.588   13.564
635 1 37 0.0457	 -20.196    7.018   12.114
636 1 31 0.3531	 -21.846    8.328   12.554
637 1 37 -0.0361	 -22.296    8.828   13.414
638 1 20 -0.4121	 -21.386    9.378   11.544
639 1 37 0.1	 -22.256    9.918   11.164
640 1 37 0.1	 -20.716   10.088   12.004
641 1 37 0.1	 -20.896    8.888   10.704
642 1 20 -0.4121	 -22.936    7.508   11.884
643 1 37 0.1	 -23.746    8.148   11.554
644 1 37 0.1	 -22.506    6.988   11.024
645 1 37 0.1	 -23.336    6.768   12.574
646 1 2 0.5973	 -20.306    8.738   15.134
647 1 60 -0.5679	 -20.596    9.928   15.184
648 1 51 -0.4157	 -20.486    7.918   16.174
649 1 34 0.2719	 -20.166    6.958   16.094
650 1 23 0.0337	 -21.046    8.368   17.454
651 1 38 0.0823	 -21.946    8.948   17.254
652 1 20 -0.1825	 -21.456    7.118   18.244
653 1 37 0.0603	 -21.876    7.418   19.204
654 1 37 0.0603	 -22.216    6.578   17.684
655 1 37 0.0603	 -20.586    6.488   18.424
656 1 2 0.5973	 -20.096    9.278   18.264
657 1 60 -0.5679	 -20.546    9.918   19.224
658 1 51 -0.5163	 -18.816    9.368   17.874
659 1 34 0.2936	 -18.516    8.798   17.104
660 1 23 0.0381	 -17.846   10.318   18.424
661 1 38 0.088	 -18.026   10.438   19.494
662 1 30 -0.0303	 -16.396    9.798   18.244
663 1 37 -0.0122	 -15.726   10.448   18.804
664 1 37 -0.0122	 -16.116    9.898   17.194
665 1 15 0.7994	 -16.146    8.348   18.694
666 1 61 -0.8014	 -16.876    7.878   19.594
667 1 61 -0.8014	 -15.236    7.708   18.124
668 1 2 0.5366	 -17.966   11.698   17.754
669 1 60 -0.5819	 -17.796   12.718   18.414
670 1 51 -0.4157	 -18.216   11.728   16.444
671 1 34 0.2719	 -18.286   10.848   15.964
672 1 23 -0.0875	 -18.216   12.968   15.634
673 1 38 0.0969	 -17.696   13.748   16.194
674 1 31 0.2985	 -17.456   12.788   14.314
675 1 37 -0.0297	 -17.366   13.778   13.864
676 1 20 -0.3192	 -16.046   12.248   14.544
677 1 37 0.0791	 -15.466   12.318   13.614
678 1 37 0.0791	 -15.556   12.828   15.324
679 1 37 0.0791	 -16.086   11.198   14.854
680 1 20 -0.3192	 -18.176   11.898   13.294
681 1 37 0.0791	 -17.556   11.828   12.394
682 1 37 0.0791	 -18.326   10.898   13.704
683 1 37 0.0791	 -19.136   12.328   13.014
684 1 2 0.5973	 -19.606   13.538   15.334
685 1 60 -0.5679	 -19.746   14.728   15.084
686 1 51 -0.4157	 -20.636   12.688   15.394
687 1 34 0.2719	 -20.426   11.718   15.544
688 1 23 0.0337	 -22.036   13.028   15.204
689 1 38 0.0823	 -22.176   14.108   15.354
690 1 20 -0.1825	 -22.396   12.718   13.744
691 1 37 0.0603	 -23.416   13.038   13.544
692 1 37 0.0603	 -21.726   13.248   13.074
693 1 37 0.0603	 -22.306   11.648   13.554
694 1 2 0.5973	 -22.916   12.298   16.254
695 1 60 -0.5679	 -23.696   11.408   15.904
696 1 51 -0.2548	 -22.776   12.628   17.554
697 1 20 0.0192	 -21.836   13.598   18.094
698 1 38 0.0391	 -22.136   14.608   17.814
699 1 38 0.0391	 -20.816   13.408   17.764
700 1 20 0.0189	 -21.856   13.448   19.614
701 1 37 0.0213	 -21.866   14.428   20.094
702 1 37 0.0213	 -20.996   12.868   19.934
703 1 20 -0.007	 -23.136   12.678   19.924
704 1 37 0.0253	 -23.926   13.378   20.204
705 1 37 0.0253	 -22.976   11.968   20.744
706 1 23 -0.0266	 -23.496   11.948   18.624
707 1 38 0.0641	 -23.126   10.928   18.674
708 1 2 0.5896	 -25.026   11.918   18.424
709 1 60 -0.5748	 -25.656   12.948   18.184
710 1 51 -0.4157	 -25.616   10.728   18.544
711 1 34 0.2719	 -25.036    9.918   18.724
712 1 23 -0.0252	 -27.046   10.498   18.334
713 1 38 0.0698	 -27.616   11.258   18.854
714 1 38 0.0698	 -27.306    9.518   18.754
715 1 2 0.5973	 -27.476   10.488   16.854
716 1 60 -0.5679	 -28.676   10.588   16.594
717 1 51 -0.3479	 -26.536   10.418   15.904
718 1 34 0.2747	 -25.566   10.388   16.184
719 1 23 -0.24	 -26.826   10.278   14.464
720 1 38 0.1426	 -27.886   10.468   14.324
721 1 29 -0.0094	 -26.036   11.288   13.614
722 1 37 0.0362	 -26.346   11.188   12.574
723 1 37 0.0362	 -24.976   11.048   13.654
724 1 29 0.0187	 -26.236   12.768   14.014
725 1 37 0.0103	 -25.706   13.388   13.304
726 1 37 0.0103	 -25.816   12.928   15.004
727 1 29 -0.0479	 -27.716   13.178   14.024
728 1 37 0.0621	 -28.266   12.548   14.714
729 1 37 0.0621	 -28.126   13.058   13.024
730 1 29 -0.0143	 -27.866   14.628   14.474
731 1 41 0.1135	 -27.406   15.278   13.724
732 1 41 0.1135	 -27.326   14.768   15.404
733 1 56 -0.3854	 -29.296   14.958   14.644
734 1 34 0.34	 -29.456   15.928   14.854
735 1 34 0.34	 -29.826   14.788   13.794
736 1 34 0.34	 -29.726   14.408   15.374
737 1 2 0.7341	 -26.626    8.858   13.944
738 1 60 -0.5894	 -25.846    8.068   14.494
739 1 51 -0.4157	 -27.306    8.598   12.834
740 1 34 0.2719	 -27.926    9.328   12.514
741 1 23 -0.0249	 -27.156    7.468   11.924
742 1 38 0.0843	 -26.326    6.828   12.254
743 1 30 0.2117	 -28.446    6.638   11.884
744 1 38 0.0352	 -28.326    5.818   11.184
745 1 38 0.0352	 -29.246    7.288   11.524
746 1 63 -0.6546	 -28.806    6.128   13.154
747 1 35 0.4275	 -29.276    5.308   12.984
748 1 2 0.5973	 -26.866    7.988   10.514
749 1 60 -0.5679	 -27.256    9.098   10.164
750 1 51 -0.4157	 -26.226    7.178    9.664
751 1 34 0.2719	 -25.986    6.248    9.984
752 1 23 -0.0597	 -26.116    7.468    8.234
753 1 38 0.0869	 -25.826    8.508    8.114
754 1 31 0.1303	 -25.016    6.608    7.554
755 1 37 0.0187	 -25.256    5.558    7.744
756 1 20 -0.3204	 -25.036    6.828    6.034
757 1 37 0.0882	 -24.256    6.218    5.564
758 1 37 0.0882	 -25.986    6.498    5.624
759 1 37 0.0882	 -24.886    7.878    5.784
760 1 30 -0.043	 -23.606    6.868    8.104
761 1 37 0.0236	 -22.906    6.178    7.624
762 1 37 0.0236	 -23.606    6.628    9.174
763 1 20 -0.066	 -23.056    8.298    7.934
764 1 37 0.0186	 -22.056    8.348    8.364
765 1 37 0.0186	 -22.996    8.548    6.874
766 1 37 0.0186	 -23.696    9.018    8.444
767 1 2 0.5973	 -27.476    7.268    7.554
768 1 60 -0.5679	 -28.136    6.238    7.754
769 1 51 -0.4157	 -27.906    8.208    6.714
770 1 34 0.2719	 -27.366    9.058    6.624
771 1 23 -0.0252	 -29.086    8.038    5.874
772 1 38 0.0698	 -29.926    7.728    6.484
773 1 38 0.0698	 -28.866    7.228    5.164
774 1 2 0.5973	 -29.506    9.258    5.074
775 1 60 -0.5679	 -29.336   10.408    5.494
776 1 51 -0.4157	 -30.116    8.998    3.914
777 1 34 0.2719	 -30.246    8.028    3.664
778 1 23 -0.0252	 -30.566    9.988    2.934
779 1 38 0.0698	 -30.496   10.988    3.354
780 1 38 0.0698	 -31.606    9.788    2.694
781 1 2 0.5973	 -29.776    9.958    1.624
782 1 60 -0.5679	 -30.206   10.568    0.644
783 1 51 -0.5163	 -28.666    9.238    1.564
784 1 34 0.2936	 -28.326    8.788    2.404
785 1 23 0.0381	 -27.906    8.988    0.324
786 1 38 0.088	 -27.606    9.958   -0.066
787 1 30 -0.0303	 -26.636    8.198    0.644
788 1 37 -0.0122	 -26.186    7.858   -0.286
789 1 37 -0.0122	 -26.896    7.318    1.234
790 1 15 0.7994	 -25.626    9.048    1.404
791 1 61 -0.8014	 -24.636    9.488    0.764
792 1 61 -0.8014	 -25.826    9.318    2.614
793 1 2 0.5366	 -28.756    8.298   -0.756
794 1 60 -0.5819	 -29.706    7.568   -0.476
795 1 51 -0.4157	 -28.416    8.558   -2.026
796 1 34 0.2719	 -27.536    9.018   -2.196
797 1 23 -0.0597	 -29.086    7.938   -3.176
798 1 38 0.0869	 -30.166    7.958   -3.006
799 1 31 0.1303	 -28.796    8.708   -4.496
800 1 37 0.0187	 -27.776    9.088   -4.436
801 1 20 -0.3204	 -28.886    7.858   -5.766
802 1 37 0.0882	 -28.756    8.488   -6.646
803 1 37 0.0882	 -28.076    7.118   -5.766
804 1 37 0.0882	 -29.836    7.338   -5.826
805 1 30 -0.043	 -29.726    9.938   -4.626
806 1 37 0.0236	 -29.326   10.598   -5.386
807 1 37 0.0236	 -29.706   10.488   -3.676
808 1 20 -0.066	 -31.196    9.658   -4.966
809 1 37 0.0186	 -31.776   10.578   -4.886
810 1 37 0.0186	 -31.286    9.258   -5.976
811 1 37 0.0186	 -31.616    8.938   -4.256
812 1 2 0.5973	 -28.696    6.458   -3.246
813 1 60 -0.5679	 -27.516    6.108   -3.186
814 1 51 -0.4157	 -29.706    5.598   -3.386
815 1 34 0.2719	 -30.636    5.968   -3.476
816 1 23 -0.0024	 -29.526    4.168   -3.616
817 1 38 0.0978	 -28.546    3.868   -3.266
818 1 20 -0.0343	 -30.566    3.378   -2.816
819 1 37 0.0295	 -31.566    3.648   -3.136
820 1 37 0.0295	 -30.476    3.648   -1.766
821 1 3 0.0118	 -30.366    1.878   -2.966
822 1 3 -0.1256	 -29.246    1.278   -2.366
823 1 42 0.133	 -28.566    1.878   -1.786
824 1 3 -0.1704	 -28.996   -0.092   -2.526
825 1 42 0.143	 -28.136   -0.542   -2.066
826 1 3 -0.1072	 -29.886   -0.872   -3.286
827 1 42 0.1297	 -29.696   -1.932   -3.426
828 1 3 -0.1704	 -31.016   -0.282   -3.866
829 1 42 0.143	 -31.696   -0.902   -4.446
830 1 3 -0.1256	 -31.256    1.098   -3.726
831 1 42 0.133	 -32.106    1.558   -4.196
832 1 2 0.5973	 -29.636    3.888   -5.116
833 1 60 -0.5679	 -30.696    3.998   -5.726
834 1 51 -0.4157	 -28.526    3.498   -5.736
835 1 34 0.2719	 -27.676    3.428   -5.196
836 1 23 -0.0249	 -28.446    3.288   -7.186
837 1 38 0.0843	 -28.966    4.118   -7.666
838 1 30 0.2117	 -26.986    3.338   -7.636
839 1 38 0.0352	 -26.876    2.888   -8.616
840 1 38 0.0352	 -26.386    2.788   -6.916
841 1 63 -0.6546	 -26.566    4.688   -7.696
842 1 35 0.4275	 -25.646    4.738   -7.456
843 1 2 0.5973	 -29.146    2.018   -7.706
844 1 60 -0.5679	 -29.296    1.898   -8.926
845 1 51 -0.4157	 -29.616    1.118   -6.836
846 1 34 0.2719	 -29.426    1.278   -5.856
847 1 23 0.0143	 -30.346   -0.112   -7.186
848 1 38 0.1048	 -30.386   -0.752   -6.306
849 1 30 -0.2041	 -31.796    0.248   -7.586
850 1 37 0.0797	 -31.756    0.868   -8.486
851 1 37 0.0797	 -32.256    0.828   -6.776
852 1 2 0.713	 -32.696   -0.942   -7.856
853 1 60 -0.5931	 -32.626   -1.982   -7.216
854 1 51 -0.9191	 -33.616   -0.812   -8.796
855 1 34 0.4196	 -33.596   -0.012   -9.406
856 1 34 0.4196	 -34.286   -1.552   -8.926
857 1 2 0.5973	 -29.596   -0.952   -8.236
858 1 60 -0.5679	 -30.136   -1.262   -9.296
859 1 51 -0.3479	 -28.316   -1.252   -7.976
860 1 34 0.2747	 -27.956   -1.112   -7.046
861 1 23 -0.2637	 -27.386   -1.782   -8.986
862 1 38 0.156	 -27.436   -1.162   -9.876
863 1 29 -0.0007	 -25.936   -1.712   -8.446
864 1 37 0.0327	 -25.266   -2.162   -9.176
865 1 37 0.0327	 -25.856   -2.302   -7.526
866 1 29 0.039	 -25.526   -0.252   -8.196
867 1 37 0.0285	 -26.356    0.308   -7.766
868 1 37 0.0285	 -25.286    0.198   -9.166
869 1 29 0.0486	 -24.326   -0.072   -7.266
870 1 38 0.0687	 -23.426   -0.442   -7.756
871 1 38 0.0687	 -24.506   -0.662   -6.366
872 1 55 -0.5295	 -24.156    1.348   -6.866
873 1 34 0.3456	 -24.356    1.548   -5.896
874 1 3 0.8076	 -23.766    2.368   -7.626
875 1 55 -0.8627	 -23.576    2.278   -8.906
876 1 34 0.4478	 -23.656    1.378   -9.346
877 1 34 0.4478	 -23.046    2.988   -9.396
878 1 55 -0.8627	 -23.536    3.538   -7.096
879 1 34 0.4478	 -23.506    3.658   -6.096
880 1 34 0.4478	 -23.056    4.208   -7.676
881 1 2 0.7341	 -27.786   -3.182   -9.426
882 1 60 -0.5894	 -27.866   -3.432  -10.626
883 1 51 -0.5163	 -28.196   -4.042   -8.496
884 1 34 0.2936	 -28.076   -3.792   -7.526
885 1 23 0.0397	 -28.746   -5.362   -8.826
886 1 38 0.1105	 -28.136   -5.812   -9.616
887 1 30 0.056	 -28.676   -6.292   -7.606
888 1 37 -0.0173	 -29.046   -7.282   -7.896
889 1 37 -0.0173	 -29.356   -5.902   -6.856
890 1 30 0.0136	 -27.316   -6.462   -6.906
891 1 37 -0.0425	 -27.496   -6.902   -5.926
892 1 37 -0.0425	 -26.866   -5.482   -6.726
893 1 15 0.8054	 -26.316   -7.372   -7.636
894 1 61 -0.8188	 -26.696   -8.492   -8.046
895 1 61 -0.8188	 -25.136   -6.982   -7.736
896 1 2 0.5366	 -30.186   -5.292   -9.416
897 1 60 -0.5819	 -30.776   -6.312   -9.766
898 1 51 -0.4157	 -30.786   -4.092   -9.516
899 1 34 0.2719	 -30.246   -3.272   -9.266
900 1 23 -0.0252	 -32.086   -3.822  -10.146
901 1 38 0.0698	 -32.066   -4.142  -11.186
902 1 38 0.0698	 -32.256   -2.742  -10.136
903 1 2 0.5973	 -33.296   -4.472   -9.476
904 1 60 -0.5679	 -34.396   -4.492  -10.026
905 1 51 -0.3479	 -33.086   -5.012   -8.266
906 1 34 0.2747	 -32.146   -4.932   -7.906
907 1 23 -0.24	 -34.046   -5.832   -7.526
908 1 38 0.1426	 -34.396   -6.622   -8.186
909 1 29 -0.0094	 -33.306   -6.482   -6.346
910 1 37 0.0362	 -34.016   -7.102   -5.796
911 1 37 0.0362	 -32.946   -5.702   -5.666
912 1 29 0.0187	 -32.126   -7.352   -6.816
913 1 37 0.0103	 -31.336   -6.712   -7.196
914 1 37 0.0103	 -32.456   -8.032   -7.596
915 1 29 -0.0479	 -31.586   -8.172   -5.636
916 1 37 0.0621	 -32.356   -8.912   -5.406
917 1 37 0.0621	 -31.456   -7.492   -4.786
918 1 29 -0.0143	 -30.296   -8.962   -5.856
919 1 41 0.1135	 -29.856   -8.702   -6.816
920 1 41 0.1135	 -30.566  -10.022   -5.896
921 1 56 -0.3854	 -29.336   -8.762   -4.746
922 1 34 0.34	 -28.576   -9.412   -4.846
923 1 34 0.34	 -28.966   -7.812   -4.746
924 1 34 0.34	 -29.766   -8.912   -3.846
925 1 2 0.7341	 -35.296   -5.042   -7.106
926 1 60 -0.5894	 -36.396   -5.602   -7.066
927 1 51 -0.4157	 -35.136   -3.742   -6.866
928 1 34 0.2719	 -34.206   -3.362   -6.956
929 1 23 -0.0518	 -36.226   -2.802   -6.596
930 1 38 0.0922	 -36.986   -3.332   -6.006
931 1 30 -0.1102	 -35.706   -1.612   -5.766
932 1 37 0.0457	 -36.546   -1.042   -5.386
933 1 37 0.0457	 -35.136   -0.952   -6.426
934 1 31 0.3531	 -34.786   -2.002   -4.596
935 1 37 -0.0361	 -33.876   -2.442   -4.986
936 1 20 -0.4121	 -34.406   -0.742   -3.836
937 1 37 0.1	 -33.836   -1.012   -2.946
938 1 37 0.1	 -33.816   -0.102   -4.486
939 1 37 0.1	 -35.306   -0.192   -3.556
940 1 20 -0.4121	 -35.406   -3.022   -3.636
941 1 37 0.1	 -34.586   -3.662   -3.306
942 1 37 0.1	 -35.866   -2.532   -2.776
943 1 37 0.1	 -36.136   -3.672   -4.126
944 1 2 0.5973	 -36.896   -2.322   -7.886
945 1 60 -0.5679	 -36.196   -2.162   -8.896
946 1 51 -0.2548	 -38.206   -2.012   -7.876
947 1 20 0.0192	 -39.086   -2.012   -6.716
948 1 38 0.0391	 -38.646   -1.402   -5.926
949 1 38 0.0391	 -39.246   -3.032   -6.376
950 1 20 0.0189	 -40.396   -1.372   -7.136
951 1 37 0.0213	 -40.396   -0.302   -6.916
952 1 37 0.0213	 -41.256   -1.842   -6.646
953 1 20 -0.007	 -40.416   -1.562   -8.646
954 1 37 0.0253	 -40.966   -0.742   -9.116
955 1 37 0.0253	 -40.876   -2.512   -8.876
956 1 23 -0.0266	 -38.936   -1.582   -9.056
957 1 38 0.0641	 -38.826   -2.312   -9.856
958 1 2 0.5896	 -38.416   -0.232   -9.556
959 1 60 -0.5748	 -38.766    0.828   -9.036
960 1 51 -0.4157	 -37.586   -0.262  -10.596
961 1 34 0.2719	 -37.256   -1.172  -10.906
962 1 23 -0.0252	 -37.186    0.918  -11.356
963 1 38 0.0698	 -36.286    0.688  -11.926
964 1 38 0.0698	 -36.946    1.728  -10.666
965 1 2 0.5973	 -38.286    1.348  -12.316
966 1 60 -0.5679	 -38.956    0.498  -12.916
967 1 51 -0.3479	 -38.466    2.658  -12.496
968 1 34 0.2747	 -37.876    3.298  -11.976
969 1 23 -0.24	 -39.266    3.258  -13.576
970 1 38 0.1426	 -39.086    2.688  -14.486
971 1 29 -0.0094	 -40.786    3.198  -13.266
972 1 37 0.0362	 -41.026    2.238  -12.806
973 1 37 0.0362	 -41.336    3.248  -14.216
974 1 29 0.0187	 -41.286    4.318  -12.346
975 1 37 0.0103	 -41.096    5.278  -12.826
976 1 37 0.0103	 -40.716    4.288  -11.426
977 1 29 -0.0479	 -42.786    4.268  -11.986
978 1 37 0.0621	 -42.886    4.698  -10.996
979 1 37 0.0621	 -43.136    3.228  -11.956
980 1 29 -0.0143	 -43.646    5.098  -12.956
981 1 41 0.1135	 -43.816    4.548  -13.876
982 1 41 0.1135	 -43.086    5.998  -13.196
983 1 56 -0.3854	 -44.916    5.518  -12.326
984 1 34 0.34	 -45.276    6.308  -12.836
985 1 34 0.34	 -45.606    4.778  -12.286
986 1 34 0.34	 -44.766    5.838  -11.386
987 1 2 0.7341	 -38.786    4.688  -13.826
988 1 60 -0.5894	 -38.216    5.308  -12.926
989 1 51 -0.4157	 -39.066    5.238  -15.006
990 1 34 0.2719	 -39.466    4.658  -15.726
991 1 23 -0.0249	 -38.736    6.628  -15.346
992 1 38 0.0843	 -37.656    6.698  -15.456
993 1 30 0.2117	 -39.366    7.008  -16.686
994 1 38 0.0352	 -39.536    8.088  -16.736
995 1 38 0.0352	 -40.316    6.498  -16.806
996 1 63 -0.6546	 -38.476    6.638  -17.706
997 1 35 0.4275	 -38.766    7.088  -18.516
998 1 2 0.5973	 -39.166    7.638  -14.276
999 1 60 -0.5679	 -40.306    7.648  -13.816
1000 1 51 -0.4157	 -38.206    8.478  -13.866
1001 1 34 0.2719	 -37.276    8.358  -14.246
1002 1 23 -0.0252	 -38.376    9.528  -12.876
1003 1 38 0.0698	 -39.356    9.978  -12.996
1004 1 38 0.0698	 -37.626   10.308  -13.066
1005 1 2 0.5973	 -38.236    9.078  -11.426
1006 1 60 -0.5679	 -37.846    9.898  -10.596
1007 1 51 -0.3479	 -38.536    7.808  -11.086
1008 1 34 0.2747	 -38.756    7.158  -11.826
1009 1 23 -0.2637	 -38.376    7.288   -9.726
1010 1 38 0.156	 -38.886    7.958   -9.026
1011 1 29 -0.0007	 -39.016    5.888   -9.596
1012 1 37 0.0327	 -38.506    5.198  -10.266
1013 1 37 0.0327	 -40.066    5.958   -9.886
1014 1 29 0.039	 -38.956    5.328   -8.156
1015 1 37 0.0285	 -39.506    5.998   -7.496
1016 1 37 0.0285	 -37.916    5.298   -7.836
1017 1 29 0.0486	 -39.516    3.908   -8.036
1018 1 38 0.0687	 -39.236    3.508   -7.066
1019 1 38 0.0687	 -39.046    3.288   -8.806
1020 1 55 -0.5295	 -40.986    3.868   -8.146
1021 1 34 0.3456	 -41.486    4.558   -7.616
1022 1 3 0.8076	 -41.746    2.988   -8.766
1023 1 55 -0.8627	 -41.286    1.948   -9.386
1024 1 34 0.4478	 -40.306    1.718   -9.276
1025 1 34 0.4478	 -41.926    1.288   -9.806
1026 1 55 -0.8627	 -43.026    3.148   -8.776
1027 1 34 0.4478	 -43.406    3.958   -8.306
1028 1 34 0.4478	 -43.636    2.548   -9.316
1029 1 2 0.7341	 -36.896    7.288   -9.366
1030 1 60 -0.5894	 -36.086    6.718  -10.086
1031 1 51 -0.4157	 -36.566    7.898   -8.236
1032 1 34 0.2719	 -37.296    8.338   -7.696
1033 1 23 -0.0389	 -35.276    7.738   -7.576
1034 1 38 0.1007	 -34.626    7.108   -8.186
1035 1 31 0.3654	 -34.526    9.078   -7.386
1036 1 38 0.0043	 -33.516    8.858   -7.066
1037 1 20 -0.2438	 -34.446    9.888   -8.686
1038 1 37 0.0642	 -33.856   10.788   -8.516
1039 1 37 0.0642	 -33.976    9.298   -9.466
1040 1 37 0.0642	 -35.446   10.188   -9.016
1041 1 63 -0.6761	 -35.136    9.898   -6.426
1042 1 35 0.4102	 -35.406   10.708   -6.866
1043 1 2 0.5973	 -35.486    7.008   -6.256
1044 1 60 -0.5679	 -36.616    6.898   -5.766
1045 1 51 -0.4157	 -34.406    6.458   -5.716
1046 1 34 0.2719	 -33.506    6.598   -6.156
1047 1 23 -0.0275	 -34.396    5.628   -4.516
1048 1 38 0.1123	 -35.356    5.668   -4.006
1049 1 20 -0.005	 -34.116    4.188   -4.926
1050 1 37 0.0339	 -33.766    3.658   -4.036
1051 1 37 0.0339	 -33.276    4.178   -5.626
1052 1 26 -0.1415	 -35.256    3.418   -5.506
1053 1 22 -0.1638	 -35.426    3.098   -6.816
1054 1 43 0.2062	 -34.746    3.398   -7.606
1055 1 52 -0.3418	 -36.546    2.308   -6.966
1056 1 34 0.3412	 -36.846    1.918   -7.846
1057 1 14 0.138	 -37.176    2.108   -5.756
1058 1 3 -0.2601	 -38.316    1.388   -5.386
1059 1 42 0.1572	 -38.866    0.848   -6.146
1060 1 3 -0.1134	 -38.736    1.388   -4.046
1061 1 42 0.1417	 -39.596    0.808   -3.746
1062 1 3 -0.1972	 -38.016    2.138   -3.096
1063 1 42 0.1447	 -38.356    2.168   -2.066
1064 1 3 -0.2387	 -36.846    2.818   -3.476
1065 1 42 0.17	 -36.276    3.368   -2.736
1066 1 4 0.1243	 -36.396    2.828   -4.816
1067 1 2 0.5973	 -33.326    6.128   -3.556
1068 1 60 -0.5679	 -32.266    6.578   -3.996
1069 1 51 -0.3479	 -33.586    6.028   -2.246
1070 1 34 0.2747	 -34.486    5.668   -1.966
1071 1 23 -0.2637	 -32.656    6.408   -1.166
1072 1 38 0.156	 -31.636    6.458   -1.556
1073 1 29 -0.0007	 -33.046    7.778   -0.606
1074 1 37 0.0327	 -32.496    7.958    0.324
1075 1 37 0.0327	 -34.116    7.788   -0.396
1076 1 29 0.039	 -32.706    8.908   -1.586
1077 1 37 0.0285	 -33.256    8.758   -2.516
1078 1 37 0.0285	 -31.636    8.908   -1.786
1079 1 29 0.0486	 -33.096   10.248   -0.996
1080 1 38 0.0687	 -32.476   10.478   -0.126
1081 1 38 0.0687	 -34.126   10.198   -0.656
1082 1 55 -0.5295	 -32.986   11.308   -2.016
1083 1 34 0.3456	 -33.836   11.548   -2.496
1084 1 3 0.8076	 -31.946   12.068   -2.276
1085 1 55 -0.8627	 -30.786   11.898   -1.716
1086 1 34 0.4478	 -30.696   11.248   -0.956
1087 1 34 0.4478	 -30.046   12.568   -1.866
1088 1 55 -0.8627	 -32.076   13.058   -3.116
1089 1 34 0.4478	 -32.996   13.278   -3.456
1090 1 34 0.4478	 -31.336   13.738   -3.176
1091 1 2 0.7341	 -32.656    5.368   -0.056
1092 1 60 -0.5894	 -33.596    4.598    0.084
1093 1 51 -0.5163	 -31.586    5.388    0.724
1094 1 34 0.2936	 -30.866    6.078    0.544
1095 1 23 0.0397	 -31.366    4.438    1.814
1096 1 38 0.1105	 -32.296    3.908    1.984
1097 1 30 0.056	 -30.326    3.398    1.394
1098 1 37 -0.0173	 -30.626    2.968    0.444
1099 1 37 -0.0173	 -30.326    2.608    2.144
1100 1 30 0.0136	 -28.916    3.928    1.204
1101 1 37 -0.0425	 -28.586    4.458    2.104
1102 1 37 -0.0425	 -28.906    4.638    0.374
1103 1 15 0.8054	 -27.956    2.778    0.924
1104 1 61 -0.8188	 -27.876    1.858    1.774
1105 1 61 -0.8188	 -27.246    2.838   -0.106
1106 1 2 0.5366	 -31.006    5.118    3.144
1107 1 60 -0.5819	 -30.506    6.248    3.174
1108 1 51 -0.4157	 -31.246    4.418    4.244
1109 1 34 0.2719	 -31.706    3.518    4.154
1110 1 23 0.0337	 -30.806    4.818    5.584
1111 1 38 0.0823	 -29.866    5.368    5.484
1112 1 20 -0.1825	 -31.856    5.748    6.194
1113 1 37 0.0603	 -31.526    6.068    7.184
1114 1 37 0.0603	 -31.986    6.628    5.564
1115 1 37 0.0603	 -32.816    5.238    6.294
1116 1 2 0.5973	 -30.496    3.598    6.474
1117 1 60 -0.5679	 -31.196    2.578    6.404
1118 1 51 -0.5163	 -29.466    3.708    7.314
1119 1 34 0.2936	 -28.946    4.578    7.324
1120 1 23 0.0381	 -29.066    2.688    8.294
1121 1 38 0.088	 -28.956    1.728    7.794
1122 1 30 -0.0303	 -27.736    3.038    8.974
1123 1 37 -0.0122	 -27.616    2.368    9.834
1124 1 37 -0.0122	 -27.816    4.058    9.364
1125 1 15 0.7994	 -26.456    2.938    8.134
1126 1 61 -0.8014	 -26.496    2.818    6.894
1127 1 61 -0.8014	 -25.366    2.938    8.754
1128 1 2 0.5366	 -30.136    2.528    9.384
1129 1 60 -0.5819	 -30.536    3.488   10.034
1130 1 51 -0.4157	 -30.546    1.288    9.634
1131 1 34 0.2719	 -30.126    0.528    9.134
1132 1 23 -0.0597	 -31.546    0.958   10.664
1133 1 38 0.0869	 -31.986    1.888   11.034
1134 1 31 0.1303	 -32.666    0.138   10.004
1135 1 37 0.0187	 -32.196   -0.642    9.404
1136 1 20 -0.3204	 -33.576   -0.572   11.014
1137 1 37 0.0882	 -34.426   -1.012   10.494
1138 1 37 0.0882	 -33.026   -1.382   11.494
1139 1 37 0.0882	 -33.966    0.118   11.764
1140 1 30 -0.043	 -33.506    1.008    9.034
1141 1 37 0.0236	 -34.176    0.338    8.494
1142 1 37 0.0236	 -32.846    1.458    8.304
1143 1 20 -0.066	 -34.356    2.118    9.674
1144 1 37 0.0186	 -34.876    2.658    8.884
1145 1 37 0.0186	 -35.086    1.698   10.354
1146 1 37 0.0186	 -33.716    2.828   10.204
1147 1 2 0.5973	 -30.866    0.318   11.884
1148 1 60 -0.5679	 -29.766   -0.222   11.784
1149 1 51 -0.4157	 -31.486    0.428   13.064
1150 1 34 0.2719	 -32.376    0.908   13.064
1151 1 23 0.0143	 -31.026   -0.132   14.354
1152 1 38 0.1048	 -31.746    0.208   15.094
1153 1 30 -0.2041	 -31.106   -1.672   14.314
1154 1 37 0.0797	 -30.766   -2.082   15.264
1155 1 37 0.0797	 -30.436   -2.052   13.544
1156 1 2 0.713	 -32.506   -2.212   14.064
1157 1 60 -0.5931	 -33.506   -1.732   14.594
1158 1 51 -0.9191	 -32.616   -3.282   13.314
1159 1 34 0.4196	 -31.796   -3.662   12.864
1160 1 34 0.4196	 -33.526   -3.642   13.074
1161 1 2 0.5973	 -29.666    0.378   14.884
1162 1 60 -0.5679	 -29.266   -0.012   15.984
1163 1 51 -0.4157	 -28.976    1.268   14.164
1164 1 34 0.2719	 -29.336    1.508   13.244
1165 1 23 -0.0014	 -27.656    1.778   14.534
1166 1 38 0.0876	 -27.026    0.928   14.794
1167 1 20 -0.0152	 -27.026    2.468   13.324
1168 1 37 0.0295	 -27.676    3.268   12.974
1169 1 37 0.0295	 -26.926    1.748   12.504
1170 1 3 -0.0011	 -25.666    3.048   13.654
1171 1 3 -0.1906	 -24.536    2.218   13.644
1172 1 42 0.1699	 -24.616    1.188   13.344
1173 1 3 -0.2341	 -23.286    2.738   14.044
1174 1 42 0.1656	 -22.416    2.108   14.034
1175 1 2 0.3226	 -23.186    4.088   14.434
1176 1 63 -0.5579	 -21.986    4.618   14.804
1177 1 35 0.3992	 -22.036    5.578   14.744
1178 1 3 -0.2341	 -24.326    4.918   14.454
1179 1 42 0.1656	 -24.246    5.948   14.764
1180 1 3 -0.1906	 -25.566    4.398   14.064
1181 1 42 0.1699	 -26.436    5.028   14.074
1182 1 2 0.5973	 -27.686    2.738   15.744
1183 1 60 -0.5679	 -28.556    3.618   15.824
1184 1 51 -0.4157	 -26.676    2.628   16.624
1185 1 34 0.2719	 -25.996    1.898   16.444
1186 1 23 -0.0389	 -26.496    3.488   17.804
1187 1 38 0.1007	 -27.156    4.358   17.724
1188 1 31 0.3654	 -26.896    2.738   19.094
1189 1 38 0.0043	 -26.286    1.838   19.184
1190 1 20 -0.2438	 -26.736    3.588   20.354
1191 1 37 0.0642	 -27.096    3.038   21.214
1192 1 37 0.0642	 -25.686    3.828   20.514
1193 1 37 0.0642	 -27.306    4.508   20.244
1194 1 63 -0.6761	 -28.256    2.368   19.024
1195 1 35 0.4102	 -28.366    1.468   19.344
1196 1 2 0.5973	 -25.076    4.048   17.934
1197 1 60 -0.5679	 -24.886    5.248   18.114
1198 1 51 -0.4157	 -24.056    3.178   17.854
1199 1 34 0.2719	 -24.246    2.198   17.714
1200 1 23 -0.0249	 -22.636    3.548   17.894
1201 1 38 0.0843	 -22.486    4.418   17.254
1202 1 30 0.2117	 -22.176    3.918   19.314
1203 1 38 0.0352	 -22.756    4.758   19.674
1204 1 38 0.0352	 -21.126    4.218   19.274
1205 1 63 -0.6546	 -22.296    2.848   20.234
1206 1 35 0.4275	 -21.736    3.048   20.984
1207 1 2 0.5973	 -21.766    2.408   17.334
1208 1 60 -0.5679	 -22.186    1.258   17.314
1209 1 51 -0.4157	 -20.546    2.728   16.904
1210 1 34 0.2719	 -20.276    3.708   16.864
1211 1 23 -0.0252	 -19.586    1.758   16.384
1212 1 38 0.0698	 -19.716    0.808   16.914
1213 1 38 0.0698	 -18.586    2.128   16.574
1214 1 2 0.5973	 -19.716    1.488   14.874
1215 1 60 -0.5679	 -19.966    2.398   14.074
1216 1 51 -0.4157	 -19.466    0.238   14.474
1217 1 34 0.2719	 -19.306   -0.492   15.154
1218 1 23 -0.0024	 -19.426   -0.122   13.054
1219 1 38 0.0978	 -18.946    0.698   12.524
1220 1 20 -0.0343	 -18.586   -1.382   12.784
1221 1 37 0.0295	 -18.796   -1.712   11.774
1222 1 37 0.0295	 -18.886   -2.202   13.444
1223 1 3 0.0118	 -17.096   -1.152   12.894
1224 1 3 -0.1256	 -16.426   -0.422   11.904
1225 1 42 0.133	 -16.936   -0.122   10.994
1226 1 3 -0.1704	 -15.086   -0.042   12.084
1227 1 42 0.143	 -14.586    0.528   11.324
1228 1 3 -0.1072	 -14.406   -0.402   13.264
1229 1 42 0.1297	 -13.386   -0.072   13.414
1230 1 3 -0.1704	 -15.046   -1.182   14.234
1231 1 42 0.143	 -14.536   -1.422   15.154
1232 1 3 -0.1256	 -16.386   -1.572   14.034
1233 1 42 0.133	 -16.916   -2.102   14.814
1234 1 2 0.5973	 -20.846   -0.232   12.534
1235 1 60 -0.5679	 -21.776   -0.552   13.274
1236 1 51 -0.3479	 -21.006    0.038   11.234
1237 1 34 0.2747	 -20.186    0.228   10.674
1238 1 23 -0.2637	 -22.296   -0.152   10.564
1239 1 38 0.156	 -23.046    0.418   11.114
1240 1 29 -0.0007	 -22.236    0.388    9.134
1241 1 37 0.0327	 -23.136    0.108    8.594
1242 1 37 0.0327	 -21.366   -0.022    8.604
1243 1 29 0.039	 -22.136    1.928    9.184
1244 1 37 0.0285	 -21.266    2.218    9.764
1245 1 37 0.0285	 -23.026    2.298    9.704
1246 1 29 0.0486	 -22.036    2.608    7.824
1247 1 38 0.0687	 -21.156    2.218    7.304
1248 1 38 0.0687	 -21.886    3.668    7.984
1249 1 55 -0.5295	 -23.256    2.438    7.014
1250 1 34 0.3456	 -24.136    2.648    7.484
1251 1 3 0.8076	 -23.346    2.178    5.724
1252 1 55 -0.8627	 -22.316    1.808    5.014
1253 1 34 0.4478	 -21.416    1.748    5.474
1254 1 34 0.4478	 -22.406    1.728    4.014
1255 1 55 -0.8627	 -24.476    2.338    5.094
1256 1 34 0.4478	 -25.286    2.598    5.644
1257 1 34 0.4478	 -24.556    2.268    4.094
1258 1 2 0.7341	 -22.716   -1.622   10.664
1259 1 60 -0.5894	 -21.886   -2.512   10.814
1260 1 51 -0.4157	 -24.016   -1.852   10.634
1261 1 34 0.2719	 -24.636   -1.062   10.524
1262 1 23 0.0143	 -24.616   -3.192   10.574
1263 1 38 0.1048	 -23.876   -3.942   10.844
1264 1 30 -0.2041	 -25.746   -3.232   11.604
1265 1 37 0.0797	 -25.326   -3.072   12.594
1266 1 37 0.0797	 -26.216   -4.222   11.614
1267 1 2 0.713	 -26.826   -2.192   11.374
1268 1 60 -0.5931	 -27.006   -1.702   10.264
1269 1 51 -0.9191	 -27.536   -1.802   12.394
1270 1 34 0.4196	 -27.416   -2.222   13.304
1271 1 34 0.4196	 -28.306   -1.182   12.184
1272 1 2 0.5973	 -25.056   -3.492    9.124
1273 1 60 -0.5679	 -24.756   -2.712    8.214
1274 1 51 -0.4157	 -25.776   -4.592    8.914
1275 1 34 0.2719	 -25.956   -5.222    9.684
1276 1 23 -0.0249	 -26.376   -4.962    7.624
1277 1 38 0.0843	 -25.746   -4.582    6.824
1278 1 30 0.2117	 -26.376   -6.492    7.524
1279 1 38 0.0352	 -25.346   -6.842    7.554
1280 1 38 0.0352	 -26.816   -6.802    6.574
1281 1 63 -0.6546	 -27.086   -7.062    8.604
1282 1 35 0.4275	 -27.616   -7.792    8.284
1283 1 2 0.5973	 -27.796   -4.422    7.384
1284 1 60 -0.5679	 -28.326   -4.612    6.294
1285 1 51 -0.5163	 -28.416   -3.742    8.364
1286 1 34 0.2936	 -27.886   -3.502    9.194
1287 1 23 0.0381	 -29.816   -3.292    8.304
1288 1 38 0.088	 -30.406   -4.072    7.814
1289 1 30 -0.0303	 -30.396   -3.112    9.724
1290 1 37 -0.0122	 -31.406   -2.722    9.624
1291 1 37 -0.0122	 -29.806   -2.342   10.234
1292 1 15 0.7994	 -30.476   -4.342   10.614
1293 1 61 -0.8014	 -30.746   -5.462   10.134
1294 1 61 -0.8014	 -30.396   -4.142   11.854
1295 1 2 0.5366	 -30.006   -1.972    7.554
1296 1 60 -0.5819	 -29.426   -0.942    7.924
1297 1 51 -0.3479	 -30.876   -1.932    6.534
1298 1 34 0.2747	 -31.336   -2.792    6.284
1299 1 23 -0.2637	 -31.206   -0.692    5.794
1300 1 38 0.156	 -30.966    0.158    6.424
1301 1 29 -0.0007	 -30.406   -0.562    4.484
1302 1 37 0.0327	 -30.616    0.408    4.034
1303 1 37 0.0327	 -30.766   -1.322    3.784
1304 1 29 0.039	 -28.896   -0.742    4.584
1305 1 37 0.0285	 -28.526   -0.912    3.574
1306 1 37 0.0285	 -28.656   -1.622    5.174
1307 1 29 0.0486	 -28.166    0.478    5.154
1308 1 38 0.0687	 -28.606    0.738    6.114
1309 1 38 0.0687	 -28.296    1.318    4.474
1310 1 55 -0.5295	 -26.736    0.168    5.284
1311 1 34 0.3456	 -26.206    0.238    4.434
1312 1 3 0.8076	 -26.136   -0.342    6.344
1313 1 55 -0.8627	 -26.736   -0.562    7.484
1314 1 34 0.4478	 -27.726   -0.422    7.554
1315 1 34 0.4478	 -26.266   -1.052    8.234
1316 1 55 -0.8627	 -24.896   -0.712    6.274
1317 1 34 0.4478	 -24.496   -0.792    5.344
1318 1 34 0.4478	 -24.596   -1.362    6.994
1319 1 2 0.7341	 -32.686   -0.612    5.464
1320 1 60 -0.5894	 -33.296   -1.602    5.054
1321 1 51 -0.4157	 -33.256    0.588    5.584
1322 1 34 0.2719	 -32.656    1.348    5.884
1323 1 23 -0.0597	 -34.546    0.938    4.984
1324 1 38 0.0869	 -35.096    0.018    4.794
1325 1 31 0.1303	 -35.406    1.798    5.934
1326 1 37 0.0187	 -35.336    1.358    6.924
1327 1 20 -0.3204	 -34.906    3.248    6.014
1328 1 37 0.0882	 -35.416    3.778    6.824
1329 1 37 0.0882	 -33.836    3.248    6.234
1330 1 37 0.0882	 -35.086    3.778    5.084
1331 1 30 -0.043	 -36.896    1.738    5.524
1332 1 37 0.0236	 -37.176    0.688    5.424
1333 1 37 0.0236	 -37.046    2.238    4.574
1334 1 20 -0.066	 -37.816    2.358    6.574
1335 1 37 0.0186	 -38.846    2.148    6.304
1336 1 37 0.0186	 -37.616    1.928    7.554
1337 1 37 0.0186	 -37.686    3.438    6.604
1338 1 2 0.5973	 -34.316    1.618    3.634
1339 1 60 -0.5679	 -33.356    2.378    3.464
1340 1 51 -0.4157	 -35.196    1.338    2.684
1341 1 34 0.2719	 -35.956    0.708    2.914
1342 1 23 -0.0518	 -35.086    1.718    1.284
1343 1 38 0.0922	 -34.276    2.438    1.134
1344 1 30 -0.1102	 -34.786    0.438    0.474
1345 1 37 0.0457	 -35.056    0.618   -0.566
1346 1 37 0.0457	 -35.466   -0.352    0.804
1347 1 31 0.3531	 -33.356   -0.132    0.504
1348 1 37 -0.0361	 -33.356   -0.992   -0.166
1349 1 20 -0.4121	 -32.276    0.818    0.014
1350 1 37 0.1	 -31.286    0.358    0.114
1351 1 37 0.1	 -32.406    1.078   -1.036
1352 1 37 0.1	 -32.316    1.718    0.614
1353 1 20 -0.4121	 -32.866   -0.612    1.864
1354 1 37 0.1	 -32.116   -1.382    1.714
1355 1 37 0.1	 -32.396    0.208    2.414
1356 1 37 0.1	 -33.696   -0.982    2.464
1357 1 2 0.5973	 -36.396    2.378    0.854
1358 1 60 -0.5679	 -37.466    1.798    1.054
1359 1 51 -0.4157	 -36.346    3.598    0.304
1360 1 34 0.2719	 -35.436    4.018    0.154
1361 1 23 -0.0014	 -37.536    4.408    0.044
1362 1 38 0.0876	 -38.376    3.728   -0.066
1363 1 20 -0.0152	 -37.846    5.308    1.254
1364 1 37 0.0295	 -37.946    4.668    2.124
1365 1 37 0.0295	 -38.816    5.778    1.084
1366 1 3 -0.0011	 -36.826    6.398    1.554
1367 1 3 -0.1906	 -35.686    6.108    2.334
1368 1 42 0.1699	 -35.516    5.098    2.684
1369 1 3 -0.2341	 -34.756    7.118    2.614
1370 1 42 0.1656	 -33.866    6.898    3.184
1371 1 2 0.3226	 -34.956    8.418    2.124
1372 1 63 -0.5579	 -34.026    9.378    2.364
1373 1 35 0.3992	 -34.226   10.208    1.924
1374 1 3 -0.2341	 -36.106    8.718    1.354
1375 1 42 0.1656	 -36.256    9.718    0.964
1376 1 3 -0.1906	 -37.036    7.708    1.064
1377 1 42 0.1699	 -37.896    7.918    0.454
1378 1 2 0.5973	 -37.456    5.198   -1.276
1379 1 60 -0.5679	 -36.406    5.748   -1.616
1380 1 51 -0.4157	 -38.546    5.218   -2.046
1381 1 34 0.2719	 -39.376    4.728   -1.726
1382 1 23 -0.0249	 -38.596    5.868   -3.356
1383 1 38 0.0843	 -37.576    5.938   -3.746
1384 1 30 0.2117	 -39.396    5.058   -4.386
1385 1 38 0.0352	 -39.006    4.048   -4.466
1386 1 38 0.0352	 -39.266    5.538   -5.366
1387 1 63 -0.6546	 -40.776    5.018   -4.096
1388 1 35 0.4275	 -41.266    5.128   -4.916
1389 1 2 0.5973	 -39.146    7.298   -3.296
1390 1 60 -0.5679	 -39.866    7.678   -2.376
1391 1 51 -0.4157	 -38.896    8.068   -4.356
1392 1 34 0.2719	 -38.236    7.748   -5.046
1393 1 23 -0.0249	 -39.516    9.388   -4.546
1394 1 38 0.0843	 -39.386    9.938   -3.616
1395 1 30 0.2117	 -38.776   10.168   -5.626
1396 1 38 0.0352	 -37.736   10.298   -5.306
1397 1 38 0.0352	 -39.226   11.158   -5.716
1398 1 63 -0.6546	 -38.766    9.568   -6.906
1399 1 35 0.4275	 -38.286   10.188   -7.456
1400 1 2 0.5973	 -41.036    9.338   -4.796
1401 1 60 -0.5679	 -41.676   10.398   -4.736
1402 1 51 -0.5163	 -41.646    8.168   -4.996
1403 1 34 0.2936	 -41.056    7.348   -5.086
1404 1 23 0.0381	 -43.106    7.918   -4.946
1405 1 38 0.088	 -43.586    8.878   -4.756
1406 1 30 -0.0303	 -43.646    7.438   -6.306
1407 1 37 -0.0122	 -43.346    8.148   -7.076
1408 1 37 -0.0122	 -44.736    7.448   -6.266
1409 1 15 0.7994	 -43.186    6.038   -6.746
1410 1 61 -0.8014	 -42.136    5.538   -6.266
1411 1 61 -0.8014	 -43.866    5.438   -7.616
1412 1 2 0.5366	 -43.546    7.018   -3.766
1413 1 60 -0.5819	 -44.626    6.438   -3.796
1414 1 51 -0.4157	 -42.716    6.948   -2.716
1415 1 34 0.2719	 -41.836    7.418   -2.786
1416 1 23 -0.0275	 -43.066    6.438   -1.376
1417 1 38 0.1123	 -42.136    6.508   -0.806
1418 1 20 -0.005	 -44.026    7.418   -0.706
1419 1 37 0.0339	 -44.186    7.128    0.334
1420 1 37 0.0339	 -44.996    7.358   -1.206
1421 1 26 -0.1415	 -43.556    8.838   -0.746
1422 1 22 -0.1638	 -44.166    9.838   -1.426
1423 1 43 0.2062	 -45.076    9.708   -1.996
1424 1 52 -0.3418	 -43.456   11.008   -1.266
1425 1 34 0.3412	 -43.756   11.908   -1.626
1426 1 14 0.138	 -42.356   10.828   -0.456
1427 1 3 -0.2601	 -41.366   11.708    0.014
1428 1 42 0.1572	 -41.416   12.758   -0.236
1429 1 3 -0.1134	 -40.356   11.208    0.864
1430 1 42 0.1417	 -39.616   11.868    1.284
1431 1 3 -0.1972	 -40.316    9.838    1.164
1432 1 42 0.1447	 -39.536    9.458    1.814
1433 1 3 -0.2387	 -41.296    8.968    0.664
1434 1 42 0.17	 -41.256    7.918    0.914
1435 1 4 0.1243	 -42.366    9.448   -0.126
1436 1 2 0.5973	 -43.456    4.958   -1.276
1437 1 60 -0.5679	 -44.236    4.538   -0.406
1438 1 51 -0.4157	 -42.836    4.138   -2.116
1439 1 34 0.2719	 -42.216    4.568   -2.796
1440 1 23 -0.0518	 -42.616    2.718   -1.846
1441 1 38 0.0922	 -43.546    2.258   -1.506
1442 1 30 -0.1102	 -42.136    2.018   -3.126
1443 1 37 0.0457	 -42.046    0.958   -2.916
1444 1 37 0.0457	 -41.136    2.408   -3.346
1445 1 31 0.3531	 -42.986    2.208   -4.386
1446 1 37 -0.0361	 -43.006    3.268   -4.666
1447 1 20 -0.4121	 -42.356    1.418   -5.536
1448 1 37 0.1	 -42.956    1.548   -6.436
1449 1 37 0.1	 -41.346    1.778   -5.716
1450 1 37 0.1	 -42.326    0.358   -5.286
1451 1 20 -0.4121	 -44.426    1.728   -4.206
1452 1 37 0.1	 -44.986    1.908   -5.126
1453 1 37 0.1	 -44.436    0.658   -3.966
1454 1 37 0.1	 -44.896    2.288   -3.406
1455 1 2 0.5973	 -41.556    2.578   -0.726
1456 1 60 -0.5679	 -40.556    3.288   -0.766
1457 1 51 -0.4157	 -41.746    1.658    0.234
1458 1 34 0.2719	 -42.606    1.128    0.244
1459 1 23 -0.0597	 -40.776    1.398    1.314
1460 1 38 0.0869	 -39.836    1.888    1.054
1461 1 31 0.1303	 -41.226    1.998    2.664
1462 1 37 0.0187	 -42.146    1.498    2.974
1463 1 20 -0.3204	 -40.156    1.738    3.754
1464 1 37 0.0882	 -40.526    2.058    4.734
1465 1 37 0.0882	 -39.916    0.678    3.844
1466 1 37 0.0882	 -39.246    2.288    3.514
1467 1 30 -0.043	 -41.506    3.518    2.574
1468 1 37 0.0236	 -42.206    3.718    1.764
1469 1 37 0.0236	 -40.576    4.048    2.354
1470 1 20 -0.066	 -42.116    4.088    3.854
1471 1 37 0.0186	 -42.306    5.158    3.734
1472 1 37 0.0186	 -43.056    3.588    4.084
1473 1 37 0.0186	 -41.426    3.998    4.694
1474 1 2 0.5973	 -40.496   -0.102    1.454
1475 1 60 -0.5679	 -41.426   -0.912    1.524
1476 1 51 -0.4157	 -39.206   -0.452    1.514
1477 1 34 0.2719	 -38.516    0.278    1.454
1478 1 23 -0.0014	 -38.686   -1.812    1.694
1479 1 38 0.0876	 -39.506   -2.452    2.034
1480 1 20 -0.0152	 -38.156   -2.372    0.354
1481 1 37 0.0295	 -37.636   -3.312    0.574
1482 1 37 0.0295	 -37.376   -1.692   -0.006
1483 1 3 -0.0011	 -39.156   -2.652   -0.766
1484 1 3 -0.1906	 -39.966   -1.632   -1.326
1485 1 42 0.1699	 -39.846   -0.612   -0.996
1486 1 3 -0.2341	 -40.876   -1.912   -2.366
1487 1 42 0.1656	 -41.486   -1.132   -2.796
1488 1 2 0.3226	 -40.976   -3.222   -2.896
1489 1 63 -0.5579	 -41.846   -3.462   -3.906
1490 1 35 0.3992	 -41.506   -4.092   -4.546
1491 1 3 -0.2341	 -40.136   -4.222   -2.386
1492 1 42 0.1656	 -40.186   -5.222   -2.806
1493 1 3 -0.1906	 -39.236   -3.942   -1.326
1494 1 42 0.1699	 -38.596   -4.732   -0.956
1495 1 2 0.5973	 -37.596   -1.852    2.794
1496 1 60 -0.5679	 -37.106   -0.812    3.234
1497 1 51 -0.3479	 -37.226   -3.062    3.254
1498 1 34 0.2747	 -37.686   -3.862    2.834
1499 1 23 -0.24	 -36.186   -3.332    4.264
1500 1 38 0.1426	 -35.546   -2.452    4.344
1501 1 29 -0.0094	 -36.806   -3.622    5.634
1502 1 37 0.0362	 -37.496   -2.802    5.884
1503 1 37 0.0362	 -36.016   -3.662    6.374
1504 1 29 0.0187	 -37.546   -4.962    5.654
1505 1 37 0.0103	 -36.836   -5.782    5.504
1506 1 37 0.0103	 -38.246   -4.982    4.824
1507 1 29 -0.0479	 -38.316   -5.252    6.944
1508 1 37 0.0621	 -39.106   -5.952    6.674
1509 1 37 0.0621	 -38.756   -4.332    7.324
1510 1 29 -0.0143	 -37.476   -5.892    8.044
1511 1 41 0.1135	 -36.926   -5.112    8.564
1512 1 41 0.1135	 -36.766   -6.582    7.594
1513 1 56 -0.3854	 -38.366   -6.632    8.974
1514 1 34 0.34	 -37.876   -6.912    9.824
1515 1 34 0.34	 -39.156   -6.082    9.264
1516 1 34 0.34	 -38.736   -7.452    8.524
1517 1 2 0.7341	 -35.276   -4.502    3.884
1518 1 60 -0.5894	 -35.716   -5.442    3.214
1519 1 51 -0.4157	 -34.016   -4.462    4.314
1520 1 34 0.2719	 -33.736   -3.632    4.824
1521 1 23 -0.0389	 -33.006   -5.522    4.174
1522 1 38 0.1007	 -33.506   -6.462    3.924
1523 1 31 0.3654	 -31.996   -5.252    3.044
1524 1 38 0.0043	 -32.496   -5.332    2.074
1525 1 20 -0.2438	 -31.376   -3.852    3.124
1526 1 37 0.0642	 -30.776   -3.682    2.244
1527 1 37 0.0642	 -32.166   -3.102    3.164
1528 1 37 0.0642	 -30.786   -3.772    4.034
1529 1 63 -0.6761	 -30.866   -6.092    3.084
1530 1 35 0.4102	 -31.096   -6.982    2.784
1531 1 2 0.5973	 -32.316   -5.692    5.514
1532 1 60 -0.5679	 -32.076   -4.702    6.214
1533 1 51 -0.4157	 -32.046   -6.932    5.874
1534 1 34 0.2719	 -32.306   -7.682    5.244
1535 1 23 -0.0389	 -31.376   -7.352    7.124
1536 1 38 0.1007	 -31.016   -6.462    7.654
1537 1 31 0.3654	 -32.376   -8.062    8.064
1538 1 38 0.0043	 -31.846   -8.452    8.934
1539 1 20 -0.2438	 -33.456   -7.092    8.544
1540 1 37 0.0642	 -34.086   -7.592    9.284
1541 1 37 0.0642	 -32.976   -6.242    9.024
1542 1 37 0.0642	 -34.066   -6.742    7.714
1543 1 63 -0.6761	 -33.056   -9.132    7.404
1544 1 35 0.4102	 -32.606   -9.942    7.624
1545 1 2 0.5973	 -30.126   -8.192    6.824
1546 1 60 -0.5679	 -29.596   -8.882    7.694
1547 1 51 -0.5163	 -29.676   -8.142    5.574
1548 1 34 0.2936	 -30.166   -7.572    4.904
1549 1 23 0.0381	 -28.726   -9.092    4.984
1550 1 38 0.088	 -28.096   -9.482    5.784
1551 1 30 -0.0303	 -29.496  -10.272    4.384
1552 1 37 -0.0122	 -30.106  -10.712    5.174
1553 1 37 -0.0122	 -28.786  -11.032    4.044
1554 1 15 0.7994	 -30.426   -9.932    3.224
1555 1 61 -0.8014	 -30.546   -8.752    2.814
1556 1 61 -0.8014	 -31.046  -10.892    2.714
1557 1 2 0.5366	 -27.776   -8.452    3.954
1558 1 60 -0.5819	 -27.156   -9.172    3.174
1559 1 51 -0.4157	 -27.596   -7.132    3.984
1560 1 34 0.2719	 -28.136   -6.592    4.644
1561 1 23 -0.0581	 -26.636   -6.402    3.124
1562 1 38 0.136	 -26.686   -5.362    3.424
1563 1 20 -0.0074	 -25.196   -6.852    3.454
1564 1 37 0.0367	 -24.946   -7.732    2.864
1565 1 37 0.0367	 -25.166   -7.152    4.504
1566 1 5 0.1868	 -24.126   -5.802    3.264
1567 1 53 -0.5432	 -23.086   -5.842    2.344
1568 1 18 0.1635	 -22.356   -4.732    2.564
1569 1 44 0.1435	 -21.476   -4.452    2.014
1570 1 52 -0.2795	 -22.876   -4.022    3.584
1571 1 34 0.3339	 -22.516   -3.142    3.934
1572 1 22 -0.2207	 -23.976   -4.702    4.054
1573 1 43 0.1862	 -24.586   -4.452    4.904
1574 1 2 0.5973	 -27.006   -6.432    1.634
1575 1 60 -0.5679	 -26.236   -6.842    0.764
1576 1 51 -0.4157	 -28.226   -5.962    1.334
1577 1 34 0.2719	 -28.836   -5.742    2.114
1578 1 23 -0.0014	 -28.786   -5.782   -0.026
1579 1 38 0.0876	 -29.796   -5.392    0.104
1580 1 20 -0.0152	 -27.976   -4.712   -0.796
1581 1 37 0.0295	 -28.566   -4.392   -1.666
1582 1 37 0.0295	 -27.076   -5.182   -1.196
1583 1 3 -0.0011	 -27.566   -3.482   -0.006
1584 1 3 -0.1906	 -28.416   -2.372    0.124
1585 1 42 0.1699	 -29.376   -2.372   -0.376
1586 1 3 -0.2341	 -28.006   -1.242    0.864
1587 1 42 0.1656	 -28.636   -0.372    0.934
1588 1 2 0.3226	 -26.746   -1.232    1.504
1589 1 63 -0.5579	 -26.366   -0.182    2.274
1590 1 35 0.3992	 -26.846    0.598    2.014
1591 1 3 -0.2341	 -25.906   -2.362    1.394
1592 1 42 0.1656	 -24.946   -2.352    1.894
1593 1 3 -0.1906	 -26.306   -3.472    0.634
1594 1 42 0.1699	 -25.636   -4.312    0.534
1595 1 2 0.5973	 -28.946   -7.102   -0.796
1596 1 60 -0.5679	 -29.136   -7.142   -2.016
1597 1 51 -0.4157	 -28.856   -8.212   -0.066
1598 1 34 0.2719	 -28.716   -8.112    0.924
1599 1 23 -0.0031	 -28.956   -9.562   -0.586
1600 1 38 0.085	 -28.436   -9.602   -1.546
1601 1 30 -0.0036	 -28.166  -10.452    0.394
1602 1 37 0.0171	 -28.666  -10.492    1.364
1603 1 37 0.0171	 -27.186  -10.002    0.534
1604 1 30 -0.0645	 -27.946  -11.882   -0.096
1605 1 37 0.0352	 -27.846  -11.862   -1.176
1606 1 37 0.0352	 -28.826  -12.472    0.164
1607 1 2 0.6951	 -26.686  -12.532    0.494
1608 1 60 -0.6086	 -26.426  -12.572    1.694
1609 1 51 -0.9407	 -25.836  -13.102   -0.326
1610 1 34 0.4251	 -25.976  -13.012   -1.326
1611 1 34 0.4251	 -25.006  -13.512    0.074
1612 1 2 0.5973	 -30.426   -9.932   -0.826
1613 1 60 -0.5679	 -30.766  -10.382   -1.926
1614 1 51 -0.4157	 -31.326   -9.592    0.114
1615 1 34 0.2719	 -30.986   -9.282    1.004
1616 1 23 -0.0389	 -32.796   -9.592   -0.046
1617 1 38 0.1007	 -33.016   -9.692   -1.116
1618 1 31 0.3654	 -33.476  -10.832    0.534
1619 1 38 0.0043	 -34.526  -10.792    0.224
1620 1 20 -0.2438	 -32.926  -12.142   -0.006
1621 1 37 0.0642	 -33.506  -12.972    0.394
1622 1 37 0.0642	 -32.996  -12.142   -1.096
1623 1 37 0.0642	 -31.886  -12.262    0.294
1624 1 63 -0.6761	 -33.456  -10.882    1.934
1625 1 35 0.4102	 -32.536  -10.902    2.194
1626 1 2 0.5973	 -33.456   -8.292    0.434
1627 1 60 -0.5679	 -32.996   -7.642    1.374
1628 1 51 -0.4157	 -34.576   -7.882   -0.206
1629 1 34 0.2719	 -34.876   -8.402   -1.016
1630 1 23 -0.0024	 -35.416   -6.752    0.224
1631 1 38 0.0978	 -35.036   -6.392    1.184
1632 1 20 -0.0343	 -35.376   -5.552   -0.756
1633 1 37 0.0295	 -35.916   -4.722   -0.296
1634 1 37 0.0295	 -35.936   -5.822   -1.646
1635 1 3 0.0118	 -34.016   -5.032   -1.226
1636 1 3 -0.1256	 -33.236   -5.842   -2.056
1637 1 42 0.133	 -33.646   -6.782   -2.376
1638 1 3 -0.1704	 -31.976   -5.422   -2.516
1639 1 42 0.143	 -31.376   -6.062   -3.146
1640 1 3 -0.1072	 -31.506   -4.142   -2.176
1641 1 42 0.1297	 -30.536   -3.822   -2.546
1642 1 3 -0.1704	 -32.316   -3.272   -1.446
1643 1 42 0.143	 -31.986   -2.262   -1.266
1644 1 3 -0.1256	 -33.586   -3.712   -1.016
1645 1 42 0.133	 -34.276   -2.982   -0.606
1646 1 2 0.5973	 -36.866   -7.222    0.434
1647 1 60 -0.5679	 -37.416   -7.922   -0.416
1648 1 51 -0.4157	 -37.516   -6.842    1.544
1649 1 34 0.2719	 -36.986   -6.352    2.244
1650 1 23 -0.0389	 -38.956   -7.082    1.794
1651 1 38 0.1007	 -39.356   -7.812    1.084
1652 1 31 0.3654	 -39.196   -7.622    3.224
1653 1 38 0.0043	 -38.856   -6.882    3.944
1654 1 20 -0.2438	 -40.656   -7.962    3.524
1655 1 37 0.0642	 -40.716   -8.462    4.494
1656 1 37 0.0642	 -41.246   -7.042    3.584
1657 1 37 0.0642	 -41.066   -8.612    2.754
1658 1 63 -0.6761	 -38.496   -8.812    3.464
1659 1 35 0.4102	 -38.826   -9.472    2.844
1660 1 2 0.5973	 -39.736   -5.772    1.644
1661 1 60 -0.5679	 -39.326   -4.772    2.224
1662 1 51 -0.3479	 -40.866   -5.752    0.904
1663 1 34 0.2747	 -41.156   -6.602    0.464
1664 1 23 -0.24	 -41.786   -4.592    0.884
1665 1 38 0.1426	 -41.216   -3.682    0.724
1666 1 29 -0.0094	 -42.826   -4.742   -0.246
1667 1 37 0.0362	 -43.566   -5.492    0.034
1668 1 37 0.0362	 -42.326   -5.092   -1.146
1669 1 29 0.0187	 -43.536   -3.412   -0.566
1670 1 37 0.0103	 -42.796   -2.672   -0.876
1671 1 37 0.0103	 -44.006   -3.032    0.344
1672 1 29 -0.0479	 -44.606   -3.572   -1.656
1673 1 37 0.0621	 -45.466   -4.082   -1.216
1674 1 37 0.0621	 -44.216   -4.212   -2.446
1675 1 29 -0.0143	 -45.116   -2.282   -2.346
1676 1 41 0.1135	 -46.136   -2.452   -2.666
1677 1 41 0.1135	 -44.516   -2.102   -3.236
1678 1 56 -0.3854	 -45.066   -1.082   -1.466
1679 1 34 0.34	 -45.546   -0.272   -1.836
1680 1 34 0.34	 -45.516   -1.252   -0.576
1681 1 34 0.34	 -44.126   -0.832   -1.216
1682 1 2 0.7341	 -42.496   -4.472    2.244
1683 1 60 -0.5894	 -43.006   -5.482    2.724
1684 1 51 -0.4157	 -42.516   -3.282    2.844
1685 1 34 0.2719	 -42.056   -2.512    2.384
1686 1 23 -0.0597	 -43.036   -3.092    4.214
1687 1 38 0.0869	 -43.586   -4.002    4.494
1688 1 31 0.1303	 -41.906   -2.942    5.234
1689 1 37 0.0187	 -42.386   -2.812    6.214
1690 1 20 -0.3204	 -41.106   -4.242    5.304
1691 1 37 0.0882	 -40.646   -4.292    6.294
1692 1 37 0.0882	 -41.766   -5.112    5.214
1693 1 37 0.0882	 -40.356   -4.272    4.524
1694 1 30 -0.043	 -41.006   -1.702    5.024
1695 1 37 0.0236	 -41.626   -0.842    4.774
1696 1 37 0.0236	 -40.316   -1.882    4.204
1697 1 20 -0.066	 -40.206   -1.342    6.284
1698 1 37 0.0186	 -39.586   -0.472    6.084
1699 1 37 0.0186	 -40.886   -1.122    7.104
1700 1 37 0.0186	 -39.556   -2.172    6.574
1701 1 2 0.5973	 -44.066   -1.992    4.414
1702 1 60 -0.5679	 -44.686   -1.942    5.474
1703 1 51 -0.3481	 -44.276   -1.112    3.434
1704 1 34 0.2764	 -43.746   -1.232    2.584
1705 1 23 -0.3068	 -45.446   -0.212    3.334
1706 1 38 0.1447	 -46.266   -0.622    3.924
1707 1 29 -0.0374	 -45.126    1.198    3.854
1708 1 37 0.0371	 -46.026    1.808    3.774
1709 1 37 0.0371	 -44.386    1.648    3.194
1710 1 29 0.0744	 -44.616    1.288    5.304
1711 1 37 0.0185	 -44.346    2.328    5.494
1712 1 37 0.0185	 -43.716    0.688    5.404
1713 1 29 0.1114	 -45.656    0.858    6.354
1714 1 38 0.0468	 -45.976   -0.172    6.184
1715 1 38 0.0468	 -46.556    1.468    6.224
1716 1 55 -0.5564	 -45.146    1.028    7.724
1717 1 34 0.3479	 -45.396    1.888    8.184
1718 1 3 0.8368	 -44.506    0.148    8.464
1719 1 55 -0.8737	 -44.136   -1.032    8.044
1720 1 34 0.4493	 -44.336   -1.312    7.094
1721 1 34 0.4493	 -43.636   -1.632    8.684
1722 1 55 -0.8737	 -44.206    0.408    9.694
1723 1 34 0.4493	 -44.466    1.308   10.064
1724 1 34 0.4493	 -43.836   -0.322   10.294
1725 1 2 0.8557	 -45.946   -0.192    1.894
1726 1 61 -0.8266	 -45.466   -1.072    1.124
1727 1 61 -0.8266	 -46.726    0.688    1.504
1728 2 56 0.1592	  47.664    3.178    4.214
1729 2 34 0.1984	  46.844    2.798    4.684
1730 2 34 0.1984	  48.484    2.668    4.524
1731 2 34 0.1984	  47.734    4.148    4.494
1732 2 23 0.0221	  47.494    3.068    2.754
1733 2 41 0.1116	  46.624    3.648    2.444
1734 2 30 0.0865	  48.734    3.588    1.994
1735 2 37 0.0125	  49.624    3.108    2.384
1736 2 37 0.0125	  48.804    4.658    2.174
1737 2 30 0.0334	  48.674    3.358    0.484
1738 2 38 0.0292	  47.784    3.838    0.084
1739 2 38 0.0292	  48.614    2.288    0.274
1740 2 67 -0.2774	  50.124    4.018   -0.386
1741 2 20 -0.0341	  49.614    3.638   -2.076
1742 2 38 0.0597	  50.334    4.028   -2.796
1743 2 38 0.0597	  49.534    2.558   -2.196
1744 2 38 0.0597	  48.644    4.098   -2.276
1745 2 2 0.6123	  47.234    1.618    2.424
1746 2 60 -0.5713	  48.154    0.808    2.504
1747 2 51 -0.3479	  45.974    1.268    2.144
1748 2 34 0.2747	  45.294    1.988    1.944
1749 2 23 -0.24	  45.584   -0.122    1.914
1750 2 38 0.1426	  46.164   -0.742    2.594
1751 2 29 -0.0094	  44.104   -0.302    2.274
1752 2 37 0.0362	  43.464    0.188    1.524
1753 2 37 0.0362	  43.934    0.188    3.234
1754 2 29 0.0187	  43.724   -1.782    2.404
1755 2 37 0.0103	  44.534   -2.302    2.934
1756 2 37 0.0103	  43.614   -2.232    1.414
1757 2 29 -0.0479	  42.434   -1.972    3.214
1758 2 37 0.0621	  41.574   -1.692    2.614
1759 2 37 0.0621	  42.474   -1.342    4.104
1760 2 29 -0.0143	  42.334   -3.432    3.654
1761 2 41 0.1135	  43.314   -3.772    3.994
1762 2 41 0.1135	  42.074   -4.052    2.794
1763 2 56 -0.3854	  41.364   -3.612    4.764
1764 2 34 0.34	  41.364   -4.572    5.074
1765 2 34 0.34	  41.584   -3.022    5.554
1766 2 34 0.34	  40.424   -3.362    4.484
1767 2 2 0.7341	  45.944   -0.562    0.494
1768 2 60 -0.5894	  45.894    0.258   -0.416
1769 2 51 -0.3479	  46.304   -1.832    0.294
1770 2 34 0.2747	  46.374   -2.452    1.094
1771 2 23 -0.24	  46.514   -2.402   -1.046
1772 2 38 0.1426	  46.034   -1.752   -1.786
1773 2 29 -0.0094	  48.014   -2.422   -1.386
1774 2 37 0.0362	  48.554   -3.042   -0.666
1775 2 37 0.0362	  48.404   -1.412   -1.346
1776 2 29 0.0187	  48.224   -2.992   -2.796
1777 2 37 0.0103	  47.564   -2.472   -3.496
1778 2 37 0.0103	  47.954   -4.052   -2.806
1779 2 29 -0.0479	  49.664   -2.852   -3.286
1780 2 37 0.0621	  50.314   -3.452   -2.656
1781 2 37 0.0621	  49.984   -1.812   -3.246
1782 2 29 -0.0143	  49.684   -3.352   -4.726
1783 2 41 0.1135	  49.074   -2.702   -5.346
1784 2 41 0.1135	  49.244   -4.352   -4.766
1785 2 56 -0.3854	  51.054   -3.432   -5.286
1786 2 34 0.34	  50.984   -3.882   -6.186
1787 2 34 0.34	  51.484   -2.532   -5.376
1788 2 34 0.34	  51.634   -4.022   -4.706
1789 2 2 0.7341	  45.874   -3.782   -1.166
1790 2 60 -0.5894	  46.394   -4.732   -0.606
1791 2 51 -0.4157	  44.784   -3.872   -1.926
1792 2 34 0.2719	  44.504   -3.042   -2.436
1793 2 23 0.0337	  44.154   -5.132   -2.296
1794 2 38 0.0823	  44.304   -5.872   -1.516
1795 2 20 -0.1825	  42.644   -4.862   -2.436
1796 2 37 0.0603	  42.144   -5.772   -2.776
1797 2 37 0.0603	  42.244   -4.572   -1.466
1798 2 37 0.0603	  42.474   -4.072   -3.166
1799 2 2 0.5973	  44.764   -5.662   -3.606
1800 2 60 -0.5679	  44.934   -4.882   -4.546
1801 2 51 -0.4157	  45.084   -6.962   -3.676
1802 2 34 0.2719	  44.954   -7.542   -2.856
1803 2 23 -0.0875	  45.614   -7.602   -4.896
1804 2 38 0.0969	  45.634   -6.862   -5.696
1805 2 31 0.2985	  47.064   -8.092   -4.726
1806 2 37 -0.0297	  47.104   -8.842   -3.936
1807 2 20 -0.3192	  47.604   -8.712   -6.026
1808 2 37 0.0791	  48.644   -9.002   -5.896
1809 2 37 0.0791	  47.024   -9.592   -6.286
1810 2 37 0.0791	  47.534   -7.982   -6.836
1811 2 20 -0.3192	  48.034   -6.952   -4.356
1812 2 37 0.0791	  49.024   -7.362   -4.186
1813 2 37 0.0791	  48.074   -6.222   -5.156
1814 2 37 0.0791	  47.694   -6.452   -3.446
1815 2 2 0.5973	  44.714   -8.742   -5.356
1816 2 60 -0.5679	  44.574   -9.762   -4.666
1817 2 51 -0.4157	  44.144   -8.592   -6.546
1818 2 34 0.2719	  44.344   -7.752   -7.066
1819 2 23 -0.0597	  43.354   -9.622   -7.236
1820 2 38 0.0869	  43.104  -10.422   -6.536
1821 2 31 0.1303	  42.024   -9.052   -7.786
1822 2 37 0.0187	  42.264   -8.312   -8.546
1823 2 20 -0.3204	  41.204  -10.172   -8.446
1824 2 37 0.0882	  40.264   -9.782   -8.836
1825 2 37 0.0882	  41.744  -10.612   -9.286
1826 2 37 0.0882	  40.974  -10.952   -7.716
1827 2 30 -0.043	  41.214   -8.352   -6.676
1828 2 37 0.0236	  41.834   -7.592   -6.196
1829 2 37 0.0236	  40.924   -9.072   -5.916
1830 2 20 -0.066	  39.974   -7.642   -7.206
1831 2 37 0.0186	  39.594   -6.982   -6.426
1832 2 37 0.0186	  40.224   -7.062   -8.086
1833 2 37 0.0186	  39.194   -8.372   -7.456
1834 2 2 0.5973	  44.194  -10.222   -8.366
1835 2 60 -0.5679	  44.704   -9.492   -9.216
1836 2 51 -0.4157	  44.294  -11.542   -8.386
1837 2 34 0.2719	  43.844  -12.072   -7.656
1838 2 23 0.0143	  44.854  -12.312   -9.496
1839 2 38 0.1048	  45.404  -11.652  -10.166
1840 2 30 -0.2041	  45.844  -13.322   -8.916
1841 2 37 0.0797	  45.324  -14.022   -8.266
1842 2 37 0.0797	  46.584  -12.782   -8.326
1843 2 2 0.713	  46.584  -14.122   -9.976
1844 2 60 -0.5931	  46.244  -14.132  -11.136
1845 2 51 -0.9191	  47.624  -14.812   -9.586
1846 2 34 0.4196	  47.944  -14.732   -8.626
1847 2 34 0.4196	  48.284  -15.072  -10.306
1848 2 2 0.5973	  43.724  -12.972  -10.306
1849 2 60 -0.5679	  43.054  -13.882   -9.806
1850 2 51 -0.4157	  43.554  -12.562  -11.556
1851 2 34 0.2719	  44.104  -11.792  -11.896
1852 2 23 -0.0252	  42.584  -13.142  -12.486
1853 2 38 0.0698	  42.604  -12.572  -13.416
1854 2 38 0.0698	  41.584  -13.062  -12.056
1855 2 2 0.5973	  42.824  -14.612  -12.846
1856 2 60 -0.5679	  41.874  -15.312  -13.176
1857 2 51 -0.5163	  44.044  -15.132  -12.666
1858 2 34 0.2936	  44.814  -14.532  -12.386
1859 2 23 0.0397	  44.314  -16.572  -12.776
1860 2 38 0.1105	  43.944  -16.912  -13.746
1861 2 30 0.056	  45.804  -16.922  -12.666
1862 2 37 -0.0173	  45.894  -18.002  -12.746
1863 2 37 -0.0173	  46.184  -16.622  -11.686
1864 2 30 0.0136	  46.664  -16.302  -13.766
1865 2 37 -0.0425	  46.714  -15.222  -13.616
1866 2 37 -0.0425	  46.184  -16.502  -14.726
1867 2 15 0.8054	  48.094  -16.872  -13.816
1868 2 61 -0.8188	  48.794  -16.612  -14.816
1869 2 61 -0.8188	  48.514  -17.642  -12.916
1870 2 2 0.5366	  43.594  -17.382  -11.706
1871 2 60 -0.5819	  43.374  -18.572  -11.916
1872 2 51 -0.4157	  43.234  -16.782  -10.566
1873 2 34 0.2719	  43.424  -15.792  -10.476
1874 2 23 -0.0031	  42.564  -17.452   -9.456
1875 2 38 0.085	  42.794  -18.522   -9.506
1876 2 30 -0.0036	  43.114  -16.942   -8.116
1877 2 37 0.0171	  42.584  -17.452   -7.306
1878 2 37 0.0171	  42.924  -15.872   -8.026
1879 2 30 -0.0645	  44.614  -17.222   -7.976
1880 2 37 0.0352	  45.174  -16.572   -8.656
1881 2 37 0.0352	  44.804  -18.252   -8.266
1882 2 2 0.6951	  45.154  -17.022   -6.556
1883 2 60 -0.6086	  44.714  -16.162   -5.796
1884 2 51 -0.9407	  46.124  -17.812   -6.146
1885 2 34 0.4251	  46.464  -18.542   -6.756
1886 2 34 0.4251	  46.284  -17.892   -5.156
1887 2 2 0.5973	  41.034  -17.342   -9.506
1888 2 60 -0.5679	  40.354  -18.192   -8.936
1889 2 51 -0.4157	  40.464  -16.352  -10.206
1890 2 34 0.2719	  41.074  -15.742  -10.746
1891 2 23 -0.0597	  39.014  -16.182  -10.336
1892 2 38 0.0869	  38.564  -16.302   -9.346
1893 2 31 0.1303	  38.674  -14.752  -10.836
1894 2 37 0.0187	  39.034  -14.662  -11.856
1895 2 20 -0.3204	  37.164  -14.502  -10.866
1896 2 37 0.0882	  36.954  -13.472  -11.186
1897 2 37 0.0882	  36.674  -15.172  -11.566
1898 2 37 0.0882	  36.724  -14.642   -9.876
1899 2 30 -0.043	  39.364  -13.622  -10.026
1900 2 37 0.0236	  38.984  -12.652  -10.366
1901 2 37 0.0236	  40.434  -13.622  -10.236
1902 2 20 -0.066	  39.194  -13.692   -8.506
1903 2 37 0.0186	  39.524  -12.752   -8.056
1904 2 37 0.0186	  38.154  -13.862   -8.236
1905 2 37 0.0186	  39.824  -14.492   -8.106
1906 2 2 0.5973	  38.424  -17.282  -11.246
1907 2 60 -0.5679	  38.954  -17.532  -12.336
1908 2 51 -0.3479	  37.324  -17.932  -10.836
1909 2 34 0.2747	  37.024  -17.802   -9.876
1910 2 23 -0.2637	  36.554  -18.882  -11.666
1911 2 38 0.156	  36.904  -18.832  -12.696
1912 2 29 -0.0007	  36.714  -20.322  -11.136
1913 2 37 0.0327	  36.114  -20.992  -11.756
1914 2 37 0.0327	  36.324  -20.382  -10.126
1915 2 29 0.039	  38.154  -20.852  -11.136
1916 2 37 0.0285	  38.164  -21.832  -10.666
1917 2 37 0.0285	  38.774  -20.172  -10.546
1918 2 29 0.0486	  38.734  -20.972  -12.546
1919 2 38 0.0687	  38.654  -20.012  -13.046
1920 2 38 0.0687	  38.154  -21.712  -13.106
1921 2 55 -0.5295	  40.144  -21.402  -12.476
1922 2 34 0.3456	  40.344  -22.262  -11.986
1923 2 3 0.8076	  41.194  -20.662  -12.776
1924 2 55 -0.8627	  41.104  -19.462  -13.296
1925 2 34 0.4478	  40.214  -19.002  -13.336
1926 2 34 0.4478	  41.954  -18.912  -13.306
1927 2 55 -0.8627	  42.394  -21.082  -12.506
1928 2 34 0.4478	  42.534  -21.932  -11.986
1929 2 34 0.4478	  43.124  -20.392  -12.496
1930 2 2 0.7341	  35.064  -18.542  -11.766
1931 2 60 -0.5894	  34.394  -19.102  -12.626
1932 2 51 -0.4157	  34.564  -17.642  -10.926
1933 2 34 0.2719	  35.154  -17.352  -10.156
1934 2 23 -0.0249	  33.184  -17.172  -10.896
1935 2 38 0.0843	  32.794  -17.112  -11.916
1936 2 30 0.2117	  32.314  -18.162  -10.106
1937 2 38 0.0352	  32.484  -19.172  -10.466
1938 2 38 0.0352	  31.264  -17.912  -10.246
1939 2 63 -0.6546	  32.614  -18.102   -8.726
1940 2 35 0.4275	  33.484  -18.502   -8.596
1941 2 2 0.5973	  33.094  -15.782  -10.256
1942 2 60 -0.5679	  34.024  -15.332   -9.576
1943 2 51 -0.4157	  31.964  -15.102  -10.416
1944 2 34 0.2719	  31.244  -15.492  -11.016
1945 2 23 -0.0597	  31.704  -13.812   -9.756
1946 2 38 0.0869	  32.544  -13.162  -10.006
1947 2 31 0.1303	  30.424  -13.182  -10.346
1948 2 37 0.0187	  30.544  -13.132  -11.426
1949 2 20 -0.3204	  29.174  -14.032  -10.056
1950 2 37 0.0882	  28.304  -13.572  -10.526
1951 2 37 0.0882	  29.294  -15.032  -10.456
1952 2 37 0.0882	  29.004  -14.082   -8.976
1953 2 30 -0.043	  30.144  -11.752   -9.846
1954 2 37 0.0236	  29.914  -11.782   -8.786
1955 2 37 0.0236	  29.264  -11.382  -10.376
1956 2 20 -0.066	  31.284  -10.762  -10.086
1957 2 37 0.0186	  30.934   -9.752   -9.866
1958 2 37 0.0186	  32.114  -11.002   -9.416
1959 2 37 0.0186	  31.614  -10.812  -11.116
1960 2 2 0.5973	  31.694  -13.922   -8.216
1961 2 60 -0.5679	  32.134  -13.002   -7.526
1962 2 51 -0.4157	  31.284  -15.082   -7.666
1963 2 34 0.2719	  30.994  -15.812   -8.296
1964 2 23 -0.0249	  31.344  -15.372   -6.226
1965 2 38 0.0843	  30.824  -14.582   -5.686
1966 2 30 0.2117	  30.604  -16.692   -5.966
1967 2 38 0.0352	  31.114  -17.512   -6.476
1968 2 38 0.0352	  29.594  -16.612   -6.376
1969 2 63 -0.6546	  30.504  -17.012   -4.596
1970 2 35 0.4275	  31.324  -17.442   -4.336
1971 2 2 0.5973	  32.784  -15.412   -5.716
1972 2 60 -0.5679	  33.104  -14.772   -4.716
1973 2 51 -0.5163	  33.704  -16.042   -6.466
1974 2 34 0.2936	  33.384  -16.552   -7.276
1975 2 23 0.0381	  35.134  -16.082   -6.126
1976 2 38 0.088	  35.254  -16.522   -5.136
1977 2 30 -0.0303	  35.904  -16.942   -7.126
1978 2 37 -0.0122	  36.954  -17.012   -6.816
1979 2 37 -0.0122	  35.894  -16.462   -8.106
1980 2 15 0.7994	  35.344  -18.352   -7.256
1981 2 61 -0.8014	  34.994  -18.972   -6.226
1982 2 61 -0.8014	  35.164  -18.772   -8.416
1983 2 2 0.5366	  35.744  -14.672   -6.076
1984 2 60 -0.5819	  36.514  -14.372   -5.166
1985 2 51 -0.4157	  35.364  -13.802   -7.026
1986 2 34 0.2719	  34.734  -14.132   -7.736
1987 2 23 -0.0518	  35.794  -12.402   -7.066
1988 2 38 0.0922	  36.884  -12.372   -7.026
1989 2 30 -0.1102	  35.334  -11.792   -8.396
1990 2 37 0.0457	  34.264  -11.952   -8.506
1991 2 37 0.0457	  35.834  -12.312   -9.216
1992 2 31 0.3531	  35.594  -10.282   -8.536
1993 2 37 -0.0361	  35.044   -9.732   -7.766
1994 2 20 -0.4121	  37.074   -9.932   -8.436
1995 2 37 0.1	  37.204   -8.862   -8.596
1996 2 37 0.1	  37.454  -10.172   -7.436
1997 2 37 0.1	  37.654  -10.492   -9.176
1998 2 20 -0.4121	  35.094   -9.812   -9.906
1999 2 37 0.1	  35.224   -8.732   -9.976
2000 2 37 0.1	  35.644  -10.302  -10.706
2001 2 37 0.1	  34.034  -10.032  -10.006
2002 2 2 0.5973	  35.294  -11.612   -5.846
2003 2 60 -0.5679	  36.084  -10.932   -5.186
2004 2 51 -0.4157	  34.004  -11.732   -5.486
2005 2 34 0.2719	  33.394  -12.302   -6.046
2006 2 23 0.0188	  33.484  -11.102   -4.266
2007 2 38 0.0881	  33.694  -10.042   -4.306
2008 2 20 -0.0462	  31.954  -11.272   -4.196
2009 2 37 0.0402	  31.644  -11.152   -3.166
2010 2 37 0.0402	  31.684  -12.282   -4.506
2011 2 5 -0.0266	  31.224  -10.252   -5.026
2012 2 52 -0.3811	  31.144   -8.912   -4.766
2013 2 34 0.3649	  31.524   -8.432   -3.956
2014 2 18 0.2057	  30.434   -8.332   -5.746
2015 2 44 0.1392	  30.194   -7.272   -5.796
2016 2 53 -0.5727	  30.054   -9.242   -6.646
2017 2 21 0.1292	  30.554  -10.472   -6.196
2018 2 43 0.1147	  30.434  -11.432   -6.676
2019 2 2 0.5973	  34.154  -11.632   -2.996
2020 2 60 -0.5679	  34.414  -10.862   -2.076
2021 2 51 -0.4157	  34.504  -12.922   -2.946
2022 2 34 0.2719	  34.214  -13.532   -3.696
2023 2 23 -0.0031	  35.244  -13.502   -1.826
2024 2 38 0.085	  34.774  -13.182   -0.896
2025 2 30 -0.0036	  35.134  -15.022   -1.896
2026 2 37 0.0171	  35.834  -15.482   -1.196
2027 2 37 0.0171	  35.374  -15.362   -2.906
2028 2 30 -0.0645	  33.704  -15.442   -1.536
2029 2 37 0.0352	  32.984  -14.932   -2.176
2030 2 37 0.0352	  33.504  -15.132   -0.506
2031 2 2 0.6951	  33.444  -16.932   -1.646
2032 2 60 -0.6086	  34.234  -17.722   -2.156
2033 2 51 -0.9407	  32.294  -17.362   -1.186
2034 2 34 0.4251	  31.604  -16.672   -0.936
2035 2 34 0.4251	  32.034  -18.302   -1.406
2036 2 2 0.5973	  36.704  -13.012   -1.746
2037 2 60 -0.5679	  37.164  -12.662   -0.666
2038 2 51 -0.4157	  37.394  -12.872   -2.886
2039 2 34 0.2719	  36.984  -13.192   -3.756
2040 2 23 -0.0389	  38.714  -12.212   -2.946
2041 2 38 0.1007	  39.414  -12.772   -2.336
2042 2 31 0.3654	  39.264  -12.142   -4.386
2043 2 38 0.0043	  38.624  -11.502   -4.996
2044 2 20 -0.2438	  40.694  -11.612   -4.436
2045 2 37 0.0642	  41.064  -11.632   -5.466
2046 2 37 0.0642	  40.734  -10.592   -4.066
2047 2 37 0.0642	  41.344  -12.242   -3.816
2048 2 63 -0.6761	  39.344  -13.412   -4.986
2049 2 35 0.4102	  40.154  -13.812   -4.646
2050 2 2 0.5973	  38.634  -10.802   -2.376
2051 2 60 -0.5679	  39.464  -10.412   -1.556
2052 2 51 -0.4157	  37.604  -10.042   -2.756
2053 2 34 0.2719	  36.964  -10.422   -3.446
2054 2 23 -0.0518	  37.344   -8.692   -2.236
2055 2 38 0.0922	  38.244   -8.102   -2.366
2056 2 30 -0.1102	  36.194   -8.062   -3.036
2057 2 37 0.0457	  35.874   -7.152   -2.526
2058 2 37 0.0457	  35.344   -8.742   -3.056
2059 2 31 0.3531	  36.574   -7.702   -4.486
2060 2 37 -0.0361	  36.994   -8.572   -4.996
2061 2 20 -0.4121	  35.334   -7.252   -5.246
2062 2 37 0.1	  35.624   -6.972   -6.256
2063 2 37 0.1	  34.624   -8.072   -5.306
2064 2 37 0.1	  34.864   -6.402   -4.756
2065 2 20 -0.4121	  37.624   -6.592   -4.506
2066 2 37 0.1	  37.674   -6.152   -5.496
2067 2 37 0.1	  37.384   -5.822   -3.766
2068 2 37 0.1	  38.604   -7.012   -4.266
2069 2 2 0.5973	  37.054   -8.682   -0.736
2070 2 60 -0.5679	  37.614   -7.852   -0.026
2071 2 51 -0.3479	  36.224   -9.622   -0.226
2072 2 34 0.2747	  35.784  -10.252   -0.876
2073 2 23 -0.24	  35.904   -9.732    1.204
2074 2 38 0.1426	  35.444   -8.792    1.514
2075 2 29 -0.0094	  34.894  -10.872    1.444
2076 2 37 0.0362	  35.364  -11.832    1.214
2077 2 37 0.0362	  34.054  -10.742    0.754
2078 2 29 0.0187	  34.344  -10.912    2.884
2079 2 37 0.0103	  33.904   -9.942    3.124
2080 2 37 0.0103	  35.164  -11.092    3.574
2081 2 29 -0.0479	  33.264  -11.982    3.084
2082 2 37 0.0621	  33.634  -12.952    2.734
2083 2 37 0.0621	  32.384  -11.722    2.504
2084 2 29 -0.0143	  32.894  -12.102    4.564
2085 2 41 0.1135	  32.724  -11.102    4.974
2086 2 41 0.1135	  33.734  -12.542    5.094
2087 2 56 -0.3854	  31.684  -12.932    4.784
2088 2 34 0.34	  31.654  -13.292    5.724
2089 2 34 0.34	  30.824  -12.422    4.674
2090 2 34 0.34	  31.654  -13.772    4.224
2091 2 2 0.7341	  37.174   -9.882    2.054
2092 2 60 -0.5894	  37.364   -9.152    3.024
2093 2 51 -0.3479	  38.104  -10.752    1.614
2094 2 34 0.2747	  37.864  -11.302    0.804
2095 2 23 -0.24	  39.404  -10.962    2.244
2096 2 38 0.1426	  39.254  -11.142    3.304
2097 2 29 -0.0094	  40.034  -12.212    1.644
2098 2 37 0.0362	  40.144  -12.082    0.564
2099 2 37 0.0362	  39.374  -13.062    1.824
2100 2 29 0.0187	  41.414  -12.522    2.254
2101 2 37 0.0103	  41.304  -12.772    3.304
2102 2 37 0.0103	  42.074  -11.662    2.134
2103 2 29 -0.0479	  42.024  -13.702    1.494
2104 2 37 0.0621	  42.034  -13.452    0.434
2105 2 37 0.0621	  41.394  -14.572    1.644
2106 2 29 -0.0143	  43.444  -13.992    1.954
2107 2 41 0.1135	  43.444  -14.242    3.014
2108 2 41 0.1135	  44.044  -13.092    1.804
2109 2 56 -0.3854	  44.024  -15.082    1.164
2110 2 34 0.34	  45.014  -15.182    1.344
2111 2 34 0.34	  43.544  -15.952    1.354
2112 2 34 0.34	  43.934  -14.872    0.184
2113 2 2 0.7341	  40.344   -9.752    2.114
2114 2 60 -0.5894	  40.764   -9.212    3.144
2115 2 51 -0.5163	  40.674   -9.352    0.884
2116 2 34 0.2936	  40.254   -9.832    0.104
2117 2 23 0.0397	  41.724   -8.362    0.594
2118 2 38 0.1105	  42.634   -8.642    1.124
2119 2 30 0.056	  42.024   -8.352   -0.916
2120 2 37 -0.0173	  42.624   -7.472   -1.156
2121 2 37 -0.0173	  41.084   -8.262   -1.476
2122 2 30 0.0136	  42.794   -9.602   -1.376
2123 2 37 -0.0425	  42.864   -9.562   -2.466
2124 2 37 -0.0425	  42.234  -10.502   -1.116
2125 2 15 0.8054	  44.204   -9.652   -0.776
2126 2 61 -0.8188	  44.484  -10.532    0.074
2127 2 61 -0.8188	  45.014   -8.752   -1.136
2128 2 2 0.5366	  41.374   -6.942    1.074
2129 2 60 -0.5819	  42.264   -6.132    1.304
2130 2 51 -0.4157	  40.094   -6.632    1.274
2131 2 34 0.2719	  39.384   -7.292    0.984
2132 2 23 -0.0518	  39.654   -5.372    1.864
2133 2 38 0.0922	  40.494   -4.672    1.884
2134 2 30 -0.1102	  38.604   -4.732    0.954
2135 2 37 0.0457	  38.204   -3.822    1.424
2136 2 37 0.0457	  37.784   -5.432    0.834
2137 2 31 0.3531	  39.194   -4.362   -0.416
2138 2 37 -0.0361	  39.784   -5.182   -0.816
2139 2 20 -0.4121	  38.044   -4.122   -1.356
2140 2 37 0.1	  38.424   -3.882   -2.346
2141 2 37 0.1	  37.464   -5.042   -1.406
2142 2 37 0.1	  37.414   -3.312   -0.986
2143 2 20 -0.4121	  40.034   -3.092   -0.376
2144 2 37 0.1	  40.334   -2.852   -1.396
2145 2 37 0.1	  39.454   -2.272    0.024
2146 2 37 0.1	  40.934   -3.252    0.224
2147 2 2 0.5973	  39.204   -5.482    3.314
2148 2 60 -0.5679	  38.834   -4.472    3.904
2149 2 51 -0.4157	  39.274   -6.682    3.924
2150 2 34 0.2719	  39.634   -7.462    3.384
2151 2 23 0.0337	  38.744   -6.972    5.254
2152 2 38 0.0823	  38.624   -8.052    5.314
2153 2 20 -0.1825	  39.754   -6.572    6.334
2154 2 37 0.0603	  39.344   -6.792    7.324
2155 2 37 0.0603	  40.674   -7.142    6.204
2156 2 37 0.0603	  39.974   -5.502    6.274
2157 2 2 0.5973	  37.324   -6.402    5.424
2158 2 60 -0.5679	  37.064   -5.572    6.294
2159 2 51 -0.4157	  36.444   -6.782    4.494
2160 2 34 0.2719	  36.734   -7.502    3.854
2161 2 23 -0.0518	  35.034   -6.422    4.514
2162 2 38 0.0922	  34.944   -5.362    4.714
2163 2 30 -0.1102	  34.394   -6.732    3.144
2164 2 37 0.0457	  33.344   -6.442    3.154
2165 2 37 0.0457	  34.414   -7.812    2.994
2166 2 31 0.3531	  35.074   -6.042    1.944
2167 2 37 -0.0361	  36.044   -6.502    1.774
2168 2 20 -0.4121	  34.224   -6.212    0.684
2169 2 37 0.1	  34.744   -5.792   -0.176
2170 2 37 0.1	  34.044   -7.272    0.504
2171 2 37 0.1	  33.264   -5.702    0.804
2172 2 20 -0.4121	  35.274   -4.542    2.194
2173 2 37 0.1	  35.504   -4.032    1.254
2174 2 37 0.1	  34.374   -4.122    2.634
2175 2 37 0.1	  36.114   -4.392    2.874
2176 2 2 0.5973	  34.324   -7.172    5.664
2177 2 60 -0.5679	  34.794   -8.222    6.094
2178 2 51 -0.2548	  33.204   -6.632    6.184
2179 2 20 0.0192	  32.504   -5.442    5.714
2180 2 38 0.0391	  32.404   -5.412    4.624
2181 2 38 0.0391	  33.024   -4.552    6.064
2182 2 20 0.0189	  31.114   -5.512    6.324
2183 2 37 0.0213	  30.464   -6.112    5.694
2184 2 37 0.0213	  30.714   -4.512    6.484
2185 2 20 -0.007	  31.384   -6.242    7.644
2186 2 37 0.0253	  30.494   -6.752    8.004
2187 2 37 0.0253	  31.744   -5.522    8.384
2188 2 23 -0.0266	  32.484   -7.232    7.294
2189 2 38 0.0641	  33.154   -7.342    8.154
2190 2 2 0.5896	  31.914   -8.612    6.934
2191 2 60 -0.5748	  31.674   -8.932    5.774
2192 2 51 -0.5163	  31.644   -9.422    7.954
2193 2 34 0.2936	  31.964   -9.162    8.874
2194 2 23 0.0397	  31.154  -10.792    7.754
2195 2 38 0.1105	  31.894  -11.342    7.174
2196 2 30 0.056	  31.024  -11.462    9.124
2197 2 37 -0.0173	  30.224  -10.962    9.674
2198 2 37 -0.0173	  31.954  -11.332    9.684
2199 2 30 0.0136	  30.714  -12.962    9.044
2200 2 37 -0.0425	  29.784  -13.122    8.494
2201 2 37 -0.0425	  30.554  -13.332   10.054
2202 2 15 0.8054	  31.864  -13.752    8.414
2203 2 61 -0.8188	  31.774  -14.112    7.214
2204 2 61 -0.8188	  32.874  -13.982    9.114
2205 2 2 0.5366	  29.814  -10.842    7.004
2206 2 60 -0.5819	  29.594  -11.702    6.154
2207 2 51 -0.4157	  28.954   -9.852    7.254
2208 2 34 0.2719	  29.224   -9.152    7.934
2209 2 23 -0.0014	  27.664   -9.652    6.584
2210 2 38 0.0876	  27.164  -10.622    6.514
2211 2 20 -0.0152	  26.784   -8.742    7.464
2212 2 37 0.0295	  26.604   -9.252    8.414
2213 2 37 0.0295	  25.814   -8.632    6.984
2214 2 3 -0.0011	  27.344   -7.352    7.744
2215 2 3 -0.1906	  27.864   -7.032    9.024
2216 2 42 0.1699	  27.844   -7.762    9.814
2217 2 3 -0.2341	  28.404   -5.742    9.264
2218 2 42 0.1656	  28.824   -5.492   10.224
2219 2 2 0.3226	  28.424   -4.792    8.224
2220 2 63 -0.5579	  29.034   -3.592    8.394
2221 2 35 0.3992	  28.664   -2.922    7.804
2222 2 3 -0.2341	  27.874   -5.102    6.974
2223 2 42 0.1656	  27.894   -4.362    6.184
2224 2 3 -0.1906	  27.334   -6.372    6.734
2225 2 42 0.1699	  26.924   -6.612    5.764
2226 2 2 0.5973	  27.774   -9.142    5.134
2227 2 60 -0.5679	  26.764   -8.772    4.554
2228 2 51 -0.4157	  28.974   -9.062    4.534
2229 2 34 0.2719	  29.794   -9.352    5.044
2230 2 23 -0.0014	  29.144   -8.592    3.154
2231 2 38 0.0876	  28.754   -7.572    3.094
2232 2 20 -0.0152	  30.644   -8.542    2.824
2233 2 37 0.0295	  31.094   -9.502    3.084
2234 2 37 0.0295	  31.114   -7.782    3.444
2235 2 3 -0.0011	  30.944   -8.232    1.374
2236 2 3 -0.1906	  31.564   -9.192    0.544
2237 2 42 0.1699	  31.784  -10.172    0.924
2238 2 3 -0.2341	  31.884   -8.872   -0.786
2239 2 42 0.1656	  32.394   -9.592   -1.416
2240 2 2 0.3226	  31.574   -7.592   -1.296
2241 2 63 -0.5579	  31.934   -7.242   -2.556
2242 2 35 0.3992	  31.814   -6.302   -2.696
2243 2 3 -0.2341	  30.894   -6.662   -0.486
2244 2 42 0.1656	  30.614   -5.702   -0.876
2245 2 3 -0.1906	  30.574   -6.982    0.844
2246 2 42 0.1699	  30.044   -6.272    1.454
2247 2 2 0.5973	  28.384   -9.462    2.134
2248 2 60 -0.5679	  28.784  -10.592    1.854
2249 2 51 -0.4157	  27.354   -8.892    1.504
2250 2 34 0.2719	  27.084   -7.962    1.814
2251 2 23 -0.0252	  26.374   -9.612    0.664
2252 2 38 0.0698	  25.534   -8.942    0.494
2253 2 38 0.0698	  26.004  -10.462    1.234
2254 2 2 0.5973	  26.854  -10.132   -0.696
2255 2 60 -0.5679	  26.014  -10.522   -1.506
2256 2 51 -0.5163	  28.164  -10.102   -0.996
2257 2 34 0.2936	  28.774   -9.882   -0.226
2258 2 23 0.0397	  28.774  -10.632   -2.236
2259 2 38 0.1105	  29.764  -10.182   -2.306
2260 2 30 0.056	  29.004  -12.162   -2.116
2261 2 37 -0.0173	  29.424  -12.512   -3.066
2262 2 37 -0.0173	  28.034  -12.642   -1.976
2263 2 30 0.0136	  29.964  -12.622   -0.986
2264 2 37 -0.0425	  29.534  -12.332   -0.026
2265 2 37 -0.0425	  30.914  -12.102   -1.106
2266 2 15 0.8054	  30.224  -14.152   -0.956
2267 2 61 -0.8188	  30.894  -14.662   -0.026
2268 2 61 -0.8188	  29.754  -14.872   -1.866
2269 2 2 0.5366	  28.034  -10.192   -3.536
2270 2 60 -0.5819	  27.774  -10.992   -4.436
2271 2 51 -0.4157	  27.684   -8.892   -3.616
2272 2 34 0.2719	  27.924   -8.302   -2.826
2273 2 23 0.0143	  26.944   -8.242   -4.706
2274 2 38 0.1048	  27.164   -8.772   -5.636
2275 2 30 -0.2041	  25.434   -8.392   -4.436
2276 2 37 0.0797	  25.194   -9.442   -4.266
2277 2 37 0.0797	  24.884   -8.082   -5.326
2278 2 2 0.713	  24.924   -7.552   -3.276
2279 2 60 -0.5931	  24.814   -6.342   -3.366
2280 2 51 -0.9191	  24.584   -8.162   -2.156
2281 2 34 0.4196	  24.784   -9.142   -2.036
2282 2 34 0.4196	  24.254   -7.592   -1.386
2283 2 2 0.5973	  27.394   -6.772   -4.916
2284 2 60 -0.5679	  28.184   -6.262   -4.116
2285 2 51 -0.4157	  26.964   -6.082   -5.976
2286 2 34 0.2719	  26.294   -6.502   -6.606
2287 2 23 -0.0518	  27.464   -4.722   -6.316
2288 2 38 0.0922	  28.544   -4.732   -6.186
2289 2 30 -0.1102	  27.194   -4.382   -7.796
2290 2 37 0.0457	  27.634   -3.402   -7.996
2291 2 37 0.0457	  26.124   -4.282   -7.936
2292 2 31 0.3531	  27.744   -5.382   -8.836
2293 2 37 -0.0361	  27.224   -6.332   -8.736
2294 2 20 -0.4121	  27.544   -4.852  -10.246
2295 2 37 0.1	  27.694   -5.672  -10.946
2296 2 37 0.1	  26.534   -4.472  -10.386
2297 2 37 0.1	  28.244   -4.032  -10.456
2298 2 20 -0.4121	  29.254   -5.622   -8.706
2299 2 37 0.1	  29.554   -6.312   -9.486
2300 2 37 0.1	  29.794   -4.692   -8.816
2301 2 37 0.1	  29.474   -6.082   -7.746
2302 2 2 0.5973	  26.924   -3.592   -5.416
2303 2 60 -0.5679	  27.634   -2.602   -5.226
2304 2 51 -0.5163	  25.724   -3.732   -4.846
2305 2 34 0.2936	  25.214   -4.582   -5.016
2306 2 23 0.0381	  25.204   -2.802   -3.836
2307 2 38 0.088	  25.354   -1.772   -4.186
2308 2 30 -0.0303	  23.684   -3.012   -3.656
2309 2 37 -0.0122	  23.344   -2.392   -2.836
2310 2 37 -0.0122	  23.494   -4.052   -3.376
2311 2 15 0.7994	  22.854   -2.662   -4.906
2312 2 61 -0.8014	  23.034   -1.552   -5.456
2313 2 61 -0.8014	  21.954   -3.442   -5.296
2314 2 2 0.5366	  25.974   -2.942   -2.516
2315 2 60 -0.5819	  26.544   -1.972   -2.016
2316 2 51 -0.4157	  26.134   -4.172   -2.026
2317 2 34 0.2719	  25.644   -4.922   -2.476
2318 2 23 0.0337	  27.004   -4.512   -0.896
2319 2 38 0.0823	  26.604   -4.072    0.014
2320 2 20 -0.1825	  26.994   -6.042   -0.766
2321 2 37 0.0603	  27.754   -6.362   -0.046
2322 2 37 0.0603	  26.024   -6.372   -0.416
2323 2 37 0.0603	  27.214   -6.512   -1.726
2324 2 2 0.5973	  28.444   -4.002   -1.066
2325 2 60 -0.5679	  29.074   -3.502   -0.136
2326 2 51 -0.4157	  28.984   -4.112   -2.286
2327 2 34 0.2719	  28.434   -4.582   -2.986
2328 2 23 -0.0518	  30.304   -3.612   -2.656
2329 2 38 0.0922	  31.044   -4.012   -1.956
2330 2 30 -0.1102	  30.604   -4.142   -4.066
2331 2 37 0.0457	  29.774   -3.872   -4.716
2332 2 37 0.0457	  30.674   -5.232   -4.026
2333 2 31 0.3531	  31.864   -3.582   -4.716
2334 2 37 -0.0361	  31.774   -2.502   -4.816
2335 2 20 -0.4121	  33.094   -3.842   -3.876
2336 2 37 0.1	  33.924   -3.362   -4.396
2337 2 37 0.1	  33.014   -3.382   -2.896
2338 2 37 0.1	  33.274   -4.912   -3.776
2339 2 20 -0.4121	  32.124   -4.222   -6.076
2340 2 37 0.1	  32.994   -3.752   -6.536
2341 2 37 0.1	  32.294   -5.292   -5.976
2342 2 37 0.1	  31.264   -4.052   -6.726
2343 2 2 0.5973	  30.404   -2.082   -2.546
2344 2 60 -0.5679	  31.374   -1.572   -1.966
2345 2 51 -0.4157	  29.404   -1.362   -3.046
2346 2 34 0.2719	  28.624   -1.832   -3.466
2347 2 23 -0.0275	  29.354    0.098   -2.936
2348 2 38 0.1123	  30.234    0.528   -3.416
2349 2 20 -0.005	  28.114    0.588   -3.686
2350 2 37 0.0339	  27.234    0.048   -3.316
2351 2 37 0.0339	  28.224    0.338   -4.736
2352 2 26 -0.1415	  27.834    2.048   -3.556
2353 2 22 -0.1638	  26.944    2.598   -2.706
2354 2 43 0.2062	  26.344    2.048   -2.006
2355 2 52 -0.3418	  26.864    3.958   -2.936
2356 2 34 0.3412	  26.164    4.538   -2.496
2357 2 14 0.138	  27.674    4.348   -3.966
2358 2 3 -0.2601	  27.844    5.558   -4.646
2359 2 42 0.1572	  27.274    6.428   -4.366
2360 2 3 -0.1134	  28.764    5.608   -5.706
2361 2 42 0.1417	  28.904    6.528   -6.256
2362 2 3 -0.1972	  29.554    4.488   -6.006
2363 2 42 0.1447	  30.304    4.538   -6.786
2364 2 3 -0.2387	  29.374    3.278   -5.316
2365 2 42 0.17	  29.984    2.428   -5.566
2366 2 4 0.1243	  28.394    3.158   -4.316
2367 2 2 0.5973	  29.334    0.578   -1.476
2368 2 60 -0.5679	  30.114    1.468   -1.126
2369 2 51 -0.5163	  28.514   -0.002   -0.616
2370 2 34 0.2936	  27.834   -0.672   -0.966
2371 2 23 0.0381	  28.414    0.398    0.794
2372 2 38 0.088	  28.474    1.488    0.824
2373 2 30 -0.0303	  27.044    0.028    1.354
2374 2 37 -0.0122	  27.074    0.018    2.434
2375 2 37 -0.0122	  26.754   -0.962    0.994
2376 2 15 0.7994	  26.074    1.108    0.894
2377 2 61 -0.8014	  26.114    2.168    1.564
2378 2 61 -0.8014	  25.474    0.958   -0.186
2379 2 2 0.5366	  29.564   -0.062    1.694
2380 2 60 -0.5819	  29.804    0.528    2.754
2381 2 51 -0.4157	  30.334   -1.052    1.244
2382 2 34 0.2719	  30.024   -1.582    0.444
2383 2 23 0.0213	  31.664   -1.322    1.784
2384 2 38 0.1124	  31.624   -1.272    2.874
2385 2 30 -0.1231	  32.094   -2.732    1.384
2386 2 38 0.1112	  33.184   -2.812    1.454
2387 2 38 0.1112	  31.804   -2.932    0.354
2388 2 68 -0.3119	  31.314   -3.912    2.514
2389 2 36 0.1933	  31.644   -5.022    1.844
2390 2 2 0.5973	  32.694   -0.272    1.344
2391 2 60 -0.5679	  33.394    0.278    2.184
2392 2 51 -0.4157	  32.804    0.058    0.044
2393 2 34 0.2719	  32.214   -0.402   -0.626
2394 2 23 -0.0518	  33.784    1.048   -0.406
2395 2 38 0.0922	  34.774    0.768   -0.016
2396 2 30 -0.1102	  33.844    1.088   -1.936
2397 2 37 0.0457	  34.404    1.968   -2.246
2398 2 37 0.0457	  32.834    1.188   -2.316
2399 2 31 0.3531	  34.504   -0.162   -2.546
2400 2 37 -0.0361	  34.034   -1.062   -2.156
2401 2 20 -0.4121	  34.304   -0.112   -4.056
2402 2 37 0.1	  34.714   -1.002   -4.526
2403 2 37 0.1	  33.224   -0.072   -4.236
2404 2 37 0.1	  34.774    0.778   -4.476
2405 2 20 -0.4121	  36.004   -0.232   -2.276
2406 2 37 0.1	  36.404   -1.142   -2.726
2407 2 37 0.1	  36.514    0.638   -2.686
2408 2 37 0.1	  36.194   -0.282   -1.196
2409 2 2 0.5973	  33.494    2.438    0.164
2410 2 60 -0.5679	  34.384    3.088    0.704
2411 2 51 -0.4157	  32.254    2.888    0.084
2412 2 34 0.2719	  31.564    2.318   -0.376
2413 2 23 -0.0389	  31.864    4.218    0.574
2414 2 38 0.1007	  32.614    4.948    0.274
2415 2 31 0.3654	  30.524    4.658   -0.036
2416 2 38 0.0043	  30.264    5.648    0.364
2417 2 20 -0.2438	  30.614    4.748   -1.546
2418 2 37 0.0642	  29.674    5.138   -1.936
2419 2 37 0.0642	  31.434    5.428   -1.796
2420 2 37 0.0642	  30.814    3.778   -1.996
2421 2 63 -0.6761	  29.484    3.758    0.254
2422 2 35 0.4102	  29.624    2.988   -0.296
2423 2 2 0.5973	  31.784    4.278    2.094
2424 2 60 -0.5679	  32.074    5.328    2.664
2425 2 51 -0.4157	  31.394    3.198    2.794
2426 2 34 0.2719	  31.174    2.368    2.274
2427 2 23 -0.0252	  31.054    3.228    4.224
2428 2 38 0.0698	  29.964    3.238    4.324
2429 2 38 0.0698	  31.444    4.138    4.674
2430 2 2 0.5973	  31.604    2.068    5.044
2431 2 60 -0.5679	  30.934    1.628    5.984
2432 2 51 -0.4157	  32.804    1.578    4.714
2433 2 34 0.2719	  33.224    1.938    3.864
2434 2 23 -0.0275	  33.614    0.658    5.524
2435 2 38 0.1123	  33.444    0.848    6.584
2436 2 20 -0.005	  33.204   -0.792    5.244
2437 2 37 0.0339	  33.444   -1.062    4.214
2438 2 37 0.0339	  32.124   -0.882    5.364
2439 2 26 -0.1415	  33.854   -1.822    6.114
2440 2 22 -0.1638	  35.004   -2.482    5.854
2441 2 43 0.2062	  35.604   -2.352    4.964
2442 2 52 -0.3418	  35.294   -3.342    6.904
2443 2 34 0.3412	  36.074   -3.982    6.894
2444 2 14 0.138	  34.364   -3.242    7.914
2445 2 3 -0.2601	  34.224   -3.882    9.154
2446 2 42 0.1572	  34.984   -4.562    9.504
2447 2 3 -0.1134	  33.074   -3.632    9.914
2448 2 42 0.1417	  32.944   -4.122   10.874
2449 2 3 -0.1972	  32.064   -2.792    9.414
2450 2 42 0.1447	  31.134   -2.672    9.944
2451 2 3 -0.2387	  32.244   -2.102    8.194
2452 2 42 0.17	  31.484   -1.432    7.834
2453 2 4 0.1243	  33.404   -2.312    7.414
2454 2 2 0.5973	  35.124    0.838    5.274
2455 2 60 -0.5679	  35.904    0.928    6.214
2456 2 51 -0.4157	  35.544    0.878    4.004
2457 2 34 0.2719	  34.834    0.838    3.284
2458 2 23 -0.0875	  36.944    0.778    3.584
2459 2 38 0.0969	  37.404   -0.002    4.194
2460 2 31 0.2985	  37.044    0.338    2.114
2461 2 37 -0.0297	  36.414    0.988    1.504
2462 2 20 -0.3192	  38.464    0.368    1.534
2463 2 37 0.0791	  38.464   -0.072    0.544
2464 2 37 0.0791	  38.794    1.398    1.434
2465 2 37 0.0791	  39.154   -0.182    2.174
2466 2 20 -0.3192	  36.544   -1.112    1.964
2467 2 37 0.0791	  36.574   -1.402    0.914
2468 2 37 0.0791	  37.174   -1.792    2.534
2469 2 37 0.0791	  35.514   -1.202    2.314
2470 2 2 0.5973	  37.764    2.048    3.844
2471 2 60 -0.5679	  37.304    3.158    3.624
2472 2 51 -0.5163	  39.024    1.848    4.254
2473 2 34 0.2936	  39.314    0.898    4.434
2474 2 23 0.0397	  40.024    2.908    4.424
2475 2 38 0.1105	  39.544    3.738    4.944
2476 2 30 0.056	  41.204    2.398    5.254
2477 2 37 -0.0173	  41.994    3.148    5.244
2478 2 37 -0.0173	  41.594    1.458    4.844
2479 2 30 0.0136	  40.754    2.208    6.684
2480 2 37 -0.0425	  40.094    1.348    6.744
2481 2 37 -0.0425	  40.214    3.118    6.924
2482 2 15 0.8054	  41.904    2.048    7.664
2483 2 61 -0.8188	  41.704    2.468    8.834
2484 2 61 -0.8188	  42.954    1.498    7.274
2485 2 2 0.5366	  40.614    3.448    3.134
2486 2 60 -0.5819	  40.954    2.698    2.224
2487 2 51 -0.4157	  40.924    4.748    3.174
2488 2 34 0.2719	  40.654    5.278    3.994
2489 2 23 -0.0014	  41.654    5.448    2.134
2490 2 38 0.0876	  41.894    4.718    1.364
2491 2 20 -0.0152	  40.714    6.478    1.494
2492 2 37 0.0295	  41.254    7.078    0.754
2493 2 37 0.0295	  40.334    7.158    2.264
2494 2 3 -0.0011	  39.544    5.788    0.794
2495 2 3 -0.1906	  39.824    4.888   -0.246
2496 2 42 0.1699	  40.824    4.778   -0.626
2497 2 3 -0.2341	  38.804    4.048   -0.736
2498 2 42 0.1656	  39.024    3.278   -1.466
2499 2 2 0.3226	  37.504    4.158   -0.236
2500 2 63 -0.5579	  36.534    3.358   -0.746
2501 2 35 0.3992	  35.784    3.348   -0.156
2502 2 3 -0.2341	  37.204    5.108    0.754
2503 2 42 0.1656	  36.194    5.188    1.144
2504 2 3 -0.1906	  38.234    5.908    1.294
2505 2 42 0.1699	  38.024    6.568    2.124
2506 2 2 0.5973	  42.994    6.018    2.644
2507 2 60 -0.5679	  43.164    6.228    3.844
2508 2 51 -0.2548	  43.964    6.268    1.744
2509 2 20 0.0192	  45.164    7.018    2.074
2510 2 38 0.0391	  45.584    6.738    3.034
2511 2 38 0.0391	  44.934    8.088    2.074
2512 2 20 0.0189	  46.154    6.708    0.954
2513 2 37 0.0213	  46.654    5.758    1.144
2514 2 37 0.0213	  46.884    7.518    0.834
2515 2 20 -0.007	  45.214    6.588   -0.236
2516 2 37 0.0253	  45.684    6.058   -1.066
2517 2 37 0.0253	  44.914    7.588   -0.556
2518 2 23 -0.0266	  44.004    5.848    0.344
2519 2 38 0.0641	  43.114    6.198   -0.176
2520 2 2 0.5896	  44.104    4.318    0.164
2521 2 60 -0.5748	  44.714    3.618    0.974
2522 2 51 -0.4157	  43.464    3.828   -0.906
2523 2 34 0.2719	  43.054    4.498   -1.536
2524 2 23 -0.0518	  43.374    2.428   -1.326
2525 2 38 0.0922	  43.904    1.808   -0.596
2526 2 30 -0.1102	  41.894    1.978   -1.356
2527 2 37 0.0457	  41.344    2.698   -1.966
2528 2 37 0.0457	  41.484    2.008   -0.346
2529 2 31 0.3531	  41.654    0.578   -1.976
2530 2 37 -0.0361	  42.114    0.518   -2.956
2531 2 20 -0.4121	  42.224   -0.532   -1.106
2532 2 37 0.1	  42.114   -1.482   -1.616
2533 2 37 0.1	  43.294   -0.372   -0.936
2534 2 37 0.1	  41.704   -0.562   -0.146
2535 2 20 -0.4121	  40.164    0.318   -2.186
2536 2 37 0.1	  40.014   -0.702   -2.546
2537 2 37 0.1	  39.624    0.458   -1.246
2538 2 37 0.1	  39.764    1.008   -2.926
2539 2 2 0.5973	  44.014    2.228   -2.706
2540 2 60 -0.5679	  43.644    2.898   -3.666
2541 2 51 -0.4157	  44.914    1.248   -2.846
2542 2 34 0.2719	  45.224    0.778   -2.006
2543 2 23 -0.0875	  45.284    0.688   -4.146
2544 2 38 0.0969	  45.044    1.408   -4.926
2545 2 31 0.2985	  46.804    0.428   -4.266
2546 2 37 -0.0297	  47.094   -0.332   -3.536
2547 2 20 -0.3192	  47.184   -0.052   -5.666
2548 2 37 0.0791	  48.264   -0.172   -5.746
2549 2 37 0.0791	  46.714   -1.022   -5.886
2550 2 37 0.0791	  46.854    0.678   -6.416
2551 2 20 -0.3192	  47.614    1.678   -3.966
2552 2 37 0.0791	  48.674    1.478   -4.126
2553 2 37 0.0791	  47.304    2.498   -4.606
2554 2 37 0.0791	  47.474    1.948   -2.916
2555 2 2 0.5973	  44.494   -0.592   -4.396
2556 2 60 -0.5679	  44.554   -1.532   -3.606
2557 2 51 -0.4157	  43.774   -0.642   -5.516
2558 2 34 0.2719	  43.754    0.178   -6.096
2559 2 23 -0.0518	  43.304   -1.892   -6.126
2560 2 38 0.0922	  43.284   -2.682   -5.376
2561 2 30 -0.1102	  41.874   -1.682   -6.656
2562 2 37 0.0457	  41.874   -0.822   -7.326
2563 2 37 0.0457	  41.204   -1.452   -5.826
2564 2 31 0.3531	  41.324   -2.902   -7.436
2565 2 37 -0.0361	  42.024   -3.192   -8.216
2566 2 20 -0.4121	  41.094   -4.092   -6.516
2567 2 37 0.1	  40.704   -4.932   -7.096
2568 2 37 0.1	  42.024   -4.412   -6.056
2569 2 37 0.1	  40.374   -3.832   -5.726
2570 2 20 -0.4121	  40.004   -2.542   -8.116
2571 2 37 0.1	  39.644   -3.392   -8.686
2572 2 37 0.1	  39.264   -2.272   -7.366
2573 2 37 0.1	  40.154   -1.692   -8.786
2574 2 2 0.5973	  44.284   -2.292   -7.236
2575 2 60 -0.5679	  44.284   -1.662   -8.286
2576 2 51 -0.5163	  45.084   -3.322   -7.016
2577 2 34 0.2936	  45.024   -3.822   -6.146
2578 2 23 0.0397	  45.874   -3.952   -8.086
2579 2 38 0.1105	  45.974   -3.262   -8.926
2580 2 30 0.056	  47.294   -4.282   -7.586
2581 2 37 -0.0173	  47.224   -5.012   -6.786
2582 2 37 -0.0173	  47.754   -3.372   -7.206
2583 2 30 0.0136	  48.164   -4.842   -8.726
2584 2 37 -0.0425	  48.244   -4.082   -9.496
2585 2 37 -0.0425	  47.664   -5.702   -9.166
2586 2 15 0.8054	  49.574   -5.282   -8.306
2587 2 61 -0.8188	  50.274   -5.852   -9.176
2588 2 61 -0.8188	  50.014   -5.072   -7.156
2589 2 2 0.5366	  45.124   -5.192   -8.606
2590 2 60 -0.5819	  44.944   -6.162   -7.876
2591 2 51 -0.4157	  44.684   -5.162   -9.866
2592 2 34 0.2719	  44.854   -4.332  -10.416
2593 2 23 -0.0275	  43.924   -6.242  -10.496
2594 2 38 0.1123	  43.814   -7.052   -9.786
2595 2 20 -0.005	  42.514   -5.752  -10.836
2596 2 37 0.0339	  42.554   -5.132  -11.726
2597 2 37 0.0339	  42.164   -5.132  -10.016
2598 2 26 -0.1415	  41.484   -6.822  -11.046
2599 2 22 -0.1638	  41.694   -8.132  -11.336
2600 2 43 0.2062	  42.654   -8.612  -11.466
2601 2 52 -0.3418	  40.484   -8.782  -11.436
2602 2 34 0.3412	  40.394   -9.752  -11.686
2603 2 14 0.138	  39.424   -7.922  -11.216
2604 2 3 -0.2601	  38.044   -8.082  -11.216
2605 2 42 0.1572	  37.604   -9.062  -11.376
2606 2 3 -0.1134	  37.224   -6.952  -11.016
2607 2 42 0.1417	  36.144   -7.042  -11.036
2608 2 3 -0.1972	  37.804   -5.692  -10.846
2609 2 42 0.1447	  37.164   -4.832  -10.716
2610 2 3 -0.2387	  39.194   -5.542  -10.836
2611 2 42 0.17	  39.644   -4.562  -10.726
2612 2 4 0.1243	  40.044   -6.652  -11.006
2613 2 2 0.5973	  44.684   -6.782  -11.706
2614 2 60 -0.5679	  44.654   -6.232  -12.806
2615 2 51 -0.3479	  45.374   -7.892  -11.476
2616 2 34 0.2747	  45.284   -8.312  -10.556
2617 2 23 -0.2637	  46.164   -8.622  -12.466
2618 2 38 0.156	  46.604   -7.902  -13.156
2619 2 29 -0.0007	  47.274   -9.412  -11.766
2620 2 37 0.0327	  47.944   -9.812  -12.536
2621 2 37 0.0327	  46.834  -10.252  -11.226
2622 2 29 0.039	  48.104   -8.572  -10.806
2623 2 37 0.0285	  47.484   -8.172  -10.006
2624 2 37 0.0285	  48.564   -7.752  -11.356
2625 2 29 0.0486	  49.184   -9.452  -10.186
2626 2 38 0.0687	  49.744   -9.962  -10.976
2627 2 38 0.0687	  48.714  -10.192   -9.536
2628 2 55 -0.5295	  50.084   -8.592   -9.426
2629 2 34 0.3456	  50.054   -7.602   -9.616
2630 2 3 0.8076	  50.934   -8.922   -8.486
2631 2 55 -0.8627	  51.084  -10.142   -8.056
2632 2 34 0.4478	  50.374  -10.822   -8.276
2633 2 34 0.4478	  51.724  -10.302   -7.286
2634 2 55 -0.8627	  51.634   -7.972   -7.966
2635 2 34 0.4478	  51.424   -7.042   -8.276
2636 2 34 0.4478	  52.204   -8.152   -7.146
2637 2 2 0.7341	  45.294   -9.572  -13.266
2638 2 60 -0.5894	  44.314  -10.092  -12.746
2639 2 51 -0.4157	  45.684   -9.822  -14.516
2640 2 34 0.2719	  46.474   -9.312  -14.876
2641 2 23 -0.0031	  44.954  -10.702  -15.426
2642 2 38 0.085	  45.354  -10.542  -16.426
2643 2 30 -0.0036	  45.194  -12.192  -15.066
2644 2 37 0.0171	  44.534  -12.802  -15.676
2645 2 37 0.0171	  44.954  -12.372  -14.016
2646 2 30 -0.0645	  46.634  -12.682  -15.336
2647 2 37 0.0352	  46.904  -12.402  -16.356
2648 2 37 0.0352	  46.634  -13.772  -15.306
2649 2 2 0.6951	  47.704  -12.192  -14.366
2650 2 60 -0.6086	  47.584  -12.222  -13.156
2651 2 51 -0.9407	  48.824  -11.712  -14.876
2652 2 34 0.4251	  48.904  -11.612  -15.876
2653 2 34 0.4251	  49.544  -11.422  -14.226
2654 2 2 0.5973	  43.454  -10.302  -15.516
2655 2 60 -0.5679	  42.554  -11.142  -15.446
2656 2 51 -0.4157	  43.174   -8.992  -15.616
2657 2 34 0.2719	  43.934   -8.342  -15.656
2658 2 23 -0.0024	  41.794   -8.482  -15.516
2659 2 38 0.0978	  41.394   -8.762  -14.536
2660 2 20 -0.0343	  41.764   -6.952  -15.606
2661 2 37 0.0295	  42.304   -6.632  -16.496
2662 2 37 0.0295	  42.274   -6.532  -14.736
2663 2 3 0.0118	  40.344   -6.412  -15.666
2664 2 3 -0.1256	  39.764   -6.012  -16.886
2665 2 42 0.133	  40.334   -6.042  -17.796
2666 2 3 -0.1704	  38.424   -5.602  -16.926
2667 2 42 0.143	  37.984   -5.272  -17.856
2668 2 3 -0.1072	  37.644   -5.622  -15.756
2669 2 42 0.1297	  36.614   -5.302  -15.806
2670 2 3 -0.1704	  38.214   -6.032  -14.546
2671 2 42 0.143	  37.614   -6.042  -13.646
2672 2 3 -0.1256	  39.564   -6.422  -14.496
2673 2 42 0.133	  39.994   -6.752  -13.566
2674 2 2 0.5973	  40.854   -9.102  -16.566
2675 2 60 -0.5679	  39.764   -9.552  -16.236
2676 2 51 -0.5163	  41.314   -9.222  -17.816
2677 2 34 0.2936	  42.224   -8.842  -18.036
2678 2 23 0.0397	  40.534   -9.852  -18.896
2679 2 38 0.1105	  39.584   -9.322  -18.996
2680 2 30 0.056	  41.304   -9.732  -20.216
2681 2 37 -0.0173	  40.804  -10.332  -20.976
2682 2 37 -0.0173	  42.314  -10.122  -20.086
2683 2 30 0.0136	  41.394   -8.282  -20.726
2684 2 37 -0.0425	  42.024   -8.282  -21.616
2685 2 37 -0.0425	  41.874   -7.662  -19.976
2686 2 15 0.8054	  40.024   -7.712  -21.106
2687 2 61 -0.8188	  39.604   -6.662  -20.576
2688 2 61 -0.8188	  39.324   -8.332  -21.936
2689 2 2 0.5366	  40.194  -11.322  -18.626
2690 2 60 -0.5819	  39.094  -11.762  -18.956
2691 2 51 -0.4157	  41.074  -12.072  -17.946
2692 2 34 0.2719	  41.934  -11.652  -17.626
2693 2 23 -0.0031	  40.784  -13.442  -17.516
2694 2 38 0.085	  40.434  -14.012  -18.386
2695 2 30 -0.0036	  42.064  -14.102  -16.986
2696 2 37 0.0171	  42.344  -13.642  -16.036
2697 2 37 0.0171	  42.864  -13.932  -17.696
2698 2 30 -0.0645	  41.904  -15.612  -16.756
2699 2 37 0.0352	  41.534  -16.072  -17.676
2700 2 37 0.0352	  41.174  -15.792  -15.966
2701 2 2 0.6951	  43.214  -16.282  -16.376
2702 2 60 -0.6086	  44.244  -15.662  -16.186
2703 2 51 -0.9407	  43.234  -17.592  -16.256
2704 2 34 0.4251	  42.414  -18.152  -16.436
2705 2 34 0.4251	  44.134  -18.002  -16.036
2706 2 2 0.5973	  39.664  -13.472  -16.456
2707 2 60 -0.5679	  38.754  -14.292  -16.546
2708 2 51 -0.4157	  39.694  -12.522  -15.516
2709 2 34 0.2719	  40.464  -11.862  -15.546
2710 2 23 -0.0249	  38.594  -12.312  -14.566
2711 2 38 0.0843	  38.454  -13.232  -13.986
2712 2 30 0.2117	  38.864  -11.152  -13.596
2713 2 38 0.0352	  38.114  -11.182  -12.806
2714 2 38 0.0352	  38.764  -10.202  -14.106
2715 2 63 -0.6546	  40.144  -11.222  -13.006
2716 2 35 0.4275	  40.804  -11.142  -13.696
2717 2 2 0.5973	  37.294  -12.012  -15.306
2718 2 60 -0.5679	  36.254  -12.582  -14.976
2719 2 51 -0.3479	  37.314  -11.142  -16.316
2720 2 34 0.2747	  38.194  -10.692  -16.526
2721 2 23 -0.24	  36.134  -10.772  -17.106
2722 2 38 0.1426	  35.354  -10.442  -16.426
2723 2 29 -0.0094	  36.504   -9.612  -18.036
2724 2 37 0.0362	  37.094   -9.992  -18.866
2725 2 37 0.0362	  37.114   -8.892  -17.486
2726 2 29 0.0187	  35.264   -8.872  -18.556
2727 2 37 0.0103	  34.704   -8.502  -17.696
2728 2 37 0.0103	  34.634   -9.562  -19.116
2729 2 29 -0.0479	  35.624   -7.682  -19.446
2730 2 37 0.0621	  36.344   -7.052  -18.916
2731 2 37 0.0621	  34.724   -7.092  -19.646
2732 2 29 -0.0143	  36.214   -8.142  -20.776
2733 2 41 0.1135	  35.404   -8.512  -21.416
2734 2 41 0.1135	  36.904   -8.972  -20.616
2735 2 56 -0.3854	  36.944   -7.052  -21.446
2736 2 34 0.34	  37.344   -7.392  -22.306
2737 2 34 0.34	  36.374   -6.232  -21.586
2738 2 34 0.34	  37.764   -6.802  -20.906
2739 2 2 0.7341	  35.524  -11.972  -17.846
2740 2 60 -0.5894	  34.324  -12.212  -17.706
2741 2 51 -0.4157	  36.364  -12.772  -18.516
2742 2 34 0.2719	  37.334  -12.492  -18.566
2743 2 23 -0.0031	  35.964  -14.012  -19.196
2744 2 38 0.085	  35.234  -13.762  -19.976
2745 2 30 -0.0036	  37.184  -14.672  -19.866
2746 2 37 0.0171	  36.904  -15.682  -20.166
2747 2 37 0.0171	  38.014  -14.722  -19.166
2748 2 30 -0.0645	  37.624  -13.902  -21.126
2749 2 37 0.0352	  37.884  -12.882  -20.866
2750 2 37 0.0352	  36.774  -13.872  -21.816
2751 2 2 0.6951	  38.804  -14.542  -21.866
2752 2 60 -0.6086	  39.164  -15.702  -21.676
2753 2 51 -0.9407	  39.434  -13.832  -22.776
2754 2 34 0.4251	  39.214  -12.862  -22.936
2755 2 34 0.4251	  40.304  -14.202  -23.116
2756 2 2 0.5973	  35.264  -14.992  -18.246
2757 2 60 -0.5679	  34.164  -15.452  -18.546
2758 2 51 -0.4157	  35.864  -15.242  -17.086
2759 2 34 0.2719	  36.754  -14.802  -16.906
2760 2 23 -0.0518	  35.404  -16.212  -16.076
2761 2 38 0.0922	  34.874  -17.022  -16.596
2762 2 30 -0.1102	  36.634  -16.822  -15.376
2763 2 37 0.0457	  36.284  -17.562  -14.646
2764 2 37 0.0457	  37.134  -16.032  -14.836
2765 2 31 0.3531	  37.644  -17.512  -16.316
2766 2 37 -0.0361	  37.954  -16.832  -17.106
2767 2 20 -0.4121	  38.884  -17.912  -15.526
2768 2 37 0.1	  39.624  -18.362  -16.196
2769 2 37 0.1	  39.314  -17.022  -15.056
2770 2 37 0.1	  38.604  -18.622  -14.756
2771 2 20 -0.4121	  37.084  -18.782  -16.966
2772 2 37 0.1	  37.844  -19.262  -17.566
2773 2 37 0.1	  36.734  -19.472  -16.196
2774 2 37 0.1	  36.244  -18.532  -17.616
2775 2 2 0.5973	  34.374  -15.642  -15.076
2776 2 60 -0.5679	  34.154  -16.242  -14.016
2777 2 51 -0.4157	  33.764  -14.492  -15.366
2778 2 34 0.2719	  34.054  -14.002  -16.206
2779 2 23 -0.0389	  32.694  -13.872  -14.546
2780 2 38 0.1007	  32.324  -14.632  -13.846
2781 2 31 0.3654	  33.214  -12.712  -13.676
2782 2 38 0.0043	  32.384  -12.272  -13.136
2783 2 20 -0.2438	  34.244  -13.132  -12.626
2784 2 37 0.0642	  34.594  -12.262  -12.076
2785 2 37 0.0642	  33.774  -13.832  -11.936
2786 2 37 0.0642	  35.094  -13.642  -13.086
2787 2 63 -0.6761	  33.804  -11.712  -14.476
2788 2 35 0.4102	  34.644  -12.072  -14.746
2789 2 2 0.5973	  31.474  -13.422  -15.346
2790 2 60 -0.5679	  30.664  -12.652  -14.836
2791 2 51 -0.5163	  31.344  -13.822  -16.616
2792 2 34 0.2936	  32.054  -14.442  -16.986
2793 2 23 0.0397	  30.264  -13.352  -17.526
2794 2 38 0.1105	  30.514  -13.712  -18.526
2795 2 30 0.056	  28.894  -14.002  -17.186
2796 2 37 -0.0173	  28.154  -13.662  -17.906
2797 2 37 -0.0173	  28.574  -13.692  -16.186
2798 2 30 0.0136	  28.964  -15.542  -17.246
2799 2 37 -0.0425	  29.714  -15.882  -16.536
2800 2 37 -0.0425	  29.284  -15.832  -18.236
2801 2 15 0.8054	  27.654  -16.282  -16.916
2802 2 61 -0.8188	  27.744  -17.452  -16.466
2803 2 61 -0.8188	  26.554  -15.762  -17.216
2804 2 2 0.5366	  30.244  -11.812  -17.666
2805 2 60 -0.5819	  29.204  -11.172  -17.856
2806 2 51 -0.4157	  31.434  -11.202  -17.606
2807 2 34 0.2719	  32.244  -11.812  -17.526
2808 2 23 0.0143	  31.714   -9.762  -17.496
2809 2 38 0.1048	  32.804   -9.692  -17.576
2810 2 30 -0.2041	  31.164   -8.952  -18.686
2811 2 37 0.0797	  31.654   -7.982  -18.716
2812 2 37 0.0797	  30.104   -8.772  -18.526
2813 2 2 0.713	  31.354   -9.622  -20.026
2814 2 60 -0.5931	  32.414   -9.592  -20.626
2815 2 51 -0.9191	  30.334  -10.302  -20.486
2816 2 34 0.4196	  29.564  -10.472  -19.856
2817 2 34 0.4196	  30.434  -10.802  -21.366
2818 2 2 0.5973	  31.404   -9.092  -16.146
2819 2 60 -0.5679	  31.634   -7.892  -16.006
2820 2 51 -0.4157	  30.984   -9.842  -15.116
2821 2 34 0.2719	  30.804  -10.822  -15.266
2822 2 23 -0.0252	  30.774   -9.312  -13.756
2823 2 38 0.0698	  30.524  -10.152  -13.096
2824 2 38 0.0698	  29.934   -8.622  -13.766
2825 2 2 0.5973	  32.004   -8.592  -13.166
2826 2 60 -0.5679	  31.844   -7.632  -12.426
2827 2 51 -0.4157	  33.224   -8.962  -13.576
2828 2 34 0.2719	  33.304   -9.802  -14.136
2829 2 23 0.0337	  34.444   -8.222  -13.236
2830 2 38 0.0823	  34.534   -8.202  -12.146
2831 2 20 -0.1825	  35.644   -8.982  -13.806
2832 2 37 0.0603	  36.564   -8.472  -13.526
2833 2 37 0.0603	  35.674  -10.002  -13.426
2834 2 37 0.0603	  35.584   -8.982  -14.896
2835 2 2 0.5973	  34.444   -6.762  -13.726
2836 2 60 -0.5679	  34.924   -5.882  -13.016
2837 2 51 -0.5163	  33.894   -6.472  -14.906
2838 2 34 0.2936	  33.404   -7.202  -15.406
2839 2 23 0.0397	  33.754   -5.102  -15.426
2840 2 38 0.1105	  34.694   -4.562  -15.266
2841 2 30 0.056	  33.484   -5.152  -16.936
2842 2 37 -0.0173	  32.544   -5.682  -17.096
2843 2 37 -0.0173	  34.274   -5.742  -17.426
2844 2 30 0.0136	  33.384   -3.792  -17.646
2845 2 37 -0.0425	  32.554   -3.232  -17.196
2846 2 37 -0.0425	  33.124   -3.962  -18.686
2847 2 15 0.8054	  34.644   -2.922  -17.596
2848 2 61 -0.8188	  34.534   -1.692  -17.796
2849 2 61 -0.8188	  35.764   -3.452  -17.386
2850 2 2 0.5366	  32.674   -4.312  -14.676
2851 2 60 -0.5819	  32.834   -3.122  -14.436
2852 2 51 -0.4157	  31.604   -4.992  -14.226
2853 2 34 0.2719	  31.484   -5.952  -14.496
2854 2 23 -0.0249	  30.614   -4.392  -13.326
2855 2 38 0.0843	  30.244   -3.462  -13.776
2856 2 30 0.2117	  29.414   -5.312  -13.116
2857 2 38 0.0352	  28.624   -4.722  -12.646
2858 2 38 0.0352	  29.684   -6.132  -12.446
2859 2 63 -0.6546	  28.884   -5.862  -14.306
2860 2 35 0.4275	  28.104   -6.352  -14.026
2861 2 2 0.5973	  31.224   -4.032  -11.966
2862 2 60 -0.5679	  31.094   -2.902  -11.516
2863 2 51 -0.4157	  31.964   -4.972  -11.346
2864 2 34 0.2719	  32.004   -5.882  -11.776
2865 2 23 -0.0875	  32.724   -4.772  -10.096
2866 2 38 0.0969	  32.044   -4.482   -9.306
2867 2 31 0.2985	  33.424   -6.092   -9.686
2868 2 37 -0.0297	  33.874   -6.542  -10.566
2869 2 20 -0.3192	  34.534   -5.912   -8.646
2870 2 37 0.0791	  34.974   -6.882   -8.416
2871 2 37 0.0791	  35.334   -5.282   -9.026
2872 2 37 0.0791	  34.144   -5.472   -7.736
2873 2 20 -0.3192	  32.424   -7.082   -9.086
2874 2 37 0.0791	  32.924   -8.012   -8.826
2875 2 37 0.0791	  31.964   -6.662   -8.196
2876 2 37 0.0791	  31.644   -7.312   -9.816
2877 2 2 0.5973	  33.744   -3.632  -10.246
2878 2 60 -0.5679	  33.774   -2.732   -9.406
2879 2 51 -0.4157	  34.534   -3.632  -11.316
2880 2 34 0.2719	  34.474   -4.402  -11.966
2881 2 23 -0.0518	  35.504   -2.572  -11.596
2882 2 38 0.0922	  36.214   -2.522  -10.766
2883 2 30 -0.1102	  36.254   -2.942  -12.886
2884 2 37 0.0457	  35.524   -3.092  -13.676
2885 2 37 0.0457	  36.784   -3.882  -12.736
2886 2 31 0.3531	  37.254   -1.882  -13.366
2887 2 37 -0.0361	  36.724   -0.962  -13.626
2888 2 20 -0.4121	  38.324   -1.562  -12.326
2889 2 37 0.1	  39.044   -0.862  -12.756
2890 2 37 0.1	  37.874   -1.092  -11.446
2891 2 37 0.1	  38.834   -2.472  -12.026
2892 2 20 -0.4121	  37.954   -2.392  -14.616
2893 2 37 0.1	  38.604   -1.622  -15.036
2894 2 37 0.1	  38.564   -3.272  -14.386
2895 2 37 0.1	  37.214   -2.672  -15.366
2896 2 2 0.5973	  34.834   -1.192  -11.726
2897 2 60 -0.5679	  35.354   -0.202  -11.216
2898 2 51 -0.4157	  33.664   -1.142  -12.366
2899 2 34 0.2719	  33.314   -1.982  -12.806
2900 2 23 -0.0031	  32.884    0.078  -12.476
2901 2 38 0.085	  33.554    0.848  -12.886
2902 2 30 -0.0036	  31.764   -0.142  -13.496
2903 2 37 0.0171	  31.134   -0.962  -13.166
2904 2 37 0.0171	  32.204   -0.432  -14.456
2905 2 30 -0.0645	  30.864    1.088  -13.736
2906 2 37 0.0352	  30.334    1.308  -12.816
2907 2 37 0.0352	  30.124    0.848  -14.506
2908 2 2 0.6951	  31.614    2.338  -14.176
2909 2 60 -0.6086	  32.724    2.308  -14.696
2910 2 51 -0.9407	  31.044    3.488  -13.926
2911 2 34 0.4251	  30.214    3.468  -13.356
2912 2 34 0.4251	  31.644    4.308  -13.936
2913 2 2 0.5973	  32.424    0.598  -11.106
2914 2 60 -0.5679	  32.454    1.808  -10.886
2915 2 51 -0.4157	  32.124   -0.272  -10.126
2916 2 34 0.2719	  32.114   -1.262  -10.346
2917 2 23 -0.0875	  31.844    0.168   -8.746
2918 2 38 0.0969	  31.034    0.888   -8.796
2919 2 31 0.2985	  31.384   -1.002   -7.846
2920 2 37 -0.0297	  32.194   -1.732   -7.776
2921 2 20 -0.3192	  31.104   -0.532   -6.416
2922 2 37 0.0791	  30.414   -1.202   -5.896
2923 2 37 0.0791	  32.054   -0.512   -5.886
2924 2 37 0.0791	  30.704    0.478   -6.396
2925 2 20 -0.3192	  30.154   -1.742   -8.386
2926 2 37 0.0791	  29.774   -2.442   -7.636
2927 2 37 0.0791	  29.364   -1.052   -8.666
2928 2 37 0.0791	  30.434   -2.322   -9.266
2929 2 2 0.5973	  33.034    0.908   -8.106
2930 2 60 -0.5679	  32.854    1.938   -7.466
2931 2 51 -0.4157	  34.274    0.438   -8.326
2932 2 34 0.2719	  34.374   -0.412   -8.866
2933 2 23 -0.0024	  35.474    1.158   -7.886
2934 2 38 0.0978	  35.374    1.398   -6.826
2935 2 20 -0.0343	  36.724    0.278   -8.056
2936 2 37 0.0295	  37.604    0.918   -7.976
2937 2 37 0.0295	  36.734   -0.162   -9.046
2938 2 3 0.0118	  36.884   -0.812   -7.026
2939 2 3 -0.1256	  37.614   -0.572   -5.846
2940 2 42 0.133	  38.014    0.418   -5.656
2941 2 3 -0.1704	  37.884   -1.612   -4.956
2942 2 42 0.143	  38.474   -1.432   -4.066
2943 2 3 -0.1072	  37.404   -2.902   -5.216
2944 2 42 0.1297	  37.654   -3.712   -4.556
2945 2 3 -0.1704	  36.614   -3.142   -6.356
2946 2 42 0.143	  36.234   -4.132   -6.556
2947 2 3 -0.1256	  36.364   -2.102   -7.266
2948 2 42 0.133	  35.814   -2.302   -8.176
2949 2 2 0.5973	  35.684    2.488   -8.636
2950 2 60 -0.5679	  36.084    3.468   -8.016
2951 2 51 -0.3479	  35.404    2.538   -9.936
2952 2 34 0.2747	  35.084    1.688  -10.386
2953 2 23 -0.2637	  35.474    3.768  -10.746
2954 2 38 0.156	  36.464    4.218  -10.646
2955 2 29 -0.0007	  35.214    3.448  -12.226
2956 2 37 0.0327	  35.034    4.388  -12.766
2957 2 37 0.0327	  34.304    2.858  -12.306
2958 2 29 0.039	  36.374    2.718  -12.906
2959 2 37 0.0285	  36.624    1.808  -12.356
2960 2 37 0.0285	  37.254    3.358  -12.946
2961 2 29 0.0486	  35.934    2.358  -14.326
2962 2 38 0.0687	  35.594    3.258  -14.836
2963 2 38 0.0687	  35.074    1.678  -14.236
2964 2 55 -0.5295	  36.994    1.728  -15.126
2965 2 34 0.3456	  37.924    2.108  -15.036
2966 2 3 0.8076	  36.824    0.738  -15.996
2967 2 55 -0.8627	  35.664    0.198  -16.196
2968 2 34 0.4478	  34.844    0.618  -15.786
2969 2 34 0.4478	  35.524   -0.552  -16.856
2970 2 55 -0.8627	  37.844    0.298  -16.676
2971 2 34 0.4478	  38.754    0.718  -16.586
2972 2 34 0.4478	  37.704   -0.502  -17.266
2973 2 2 0.7341	  34.474    4.828  -10.276
2974 2 60 -0.5894	  34.834    6.008  -10.216
2975 2 51 -0.5163	  33.264    4.418   -9.896
2976 2 34 0.2936	  33.034    3.448  -10.056
2977 2 23 0.0397	  32.234    5.308   -9.356
2978 2 38 0.1105	  32.184    6.208   -9.966
2979 2 30 0.056	  30.864    4.618   -9.426
2980 2 37 -0.0173	  30.144    5.228   -8.876
2981 2 37 -0.0173	  30.914    3.628   -8.966
2982 2 30 0.0136	  30.384    4.498  -10.876
2983 2 37 -0.0425	  31.104    3.878  -11.416
2984 2 37 -0.0425	  30.394    5.488  -11.326
2985 2 15 0.8054	  28.974    3.908  -11.006
2986 2 61 -0.8188	  28.754    3.238  -12.046
2987 2 61 -0.8188	  28.124    4.178  -10.126
2988 2 2 0.5366	  32.524    5.758   -7.926
2989 2 60 -0.5819	  32.384    6.938   -7.626
2990 2 51 -0.4157	  32.994    4.858   -7.046
2991 2 34 0.2719	  33.044    3.888   -7.316
2992 2 23 0.0337	  33.454    5.248   -5.716
2993 2 38 0.0823	  32.634    5.738   -5.186
2994 2 20 -0.1825	  33.834    3.978   -4.936
2995 2 37 0.0603	  34.174    4.248   -3.946
2996 2 37 0.0603	  32.964    3.328   -4.846
2997 2 37 0.0603	  34.624    3.438   -5.466
2998 2 2 0.5973	  34.614    6.258   -5.796
2999 2 60 -0.5679	  34.624    7.268   -5.086
3000 2 51 -0.3479	  35.544    6.058   -6.746
3001 2 34 0.2747	  35.494    5.198   -7.276
3002 2 23 -0.24	  36.614    7.008   -7.036
3003 2 38 0.1426	  37.164    7.188   -6.116
3004 2 29 -0.0094	  37.574    6.398   -8.076
3005 2 37 0.0362	  37.044    6.218   -9.006
3006 2 37 0.0362	  37.964    5.458   -7.696
3007 2 29 0.0187	  38.724    7.378   -8.326
3008 2 37 0.0103	  39.194    7.588   -7.366
3009 2 37 0.0103	  38.324    8.288   -8.766
3010 2 29 -0.0479	  39.764    6.838   -9.296
3011 2 37 0.0621	  39.274    6.628  -10.246
3012 2 37 0.0621	  40.154    5.908   -8.896
3013 2 29 -0.0143	  40.904    7.848   -9.536
3014 2 41 0.1135	  40.484    8.738  -10.016
3015 2 41 0.1135	  41.614    7.408  -10.236
3016 2 56 -0.3854	  41.624    8.268   -8.306
3017 2 34 0.34	  42.464    8.778   -8.556
3018 2 34 0.34	  41.054    8.908   -7.776
3019 2 34 0.34	  41.864    7.478   -7.736
3020 2 2 0.7341	  36.094    8.368   -7.496
3021 2 60 -0.5894	  36.604    9.398   -7.046
3022 2 51 -0.4157	  35.104    8.388   -8.406
3023 2 34 0.2719	  34.764    7.508   -8.756
3024 2 23 0.0337	  34.504    9.628   -8.906
3025 2 38 0.0823	  35.274   10.208   -9.406
3026 2 20 -0.1825	  33.434    9.278   -9.946
3027 2 37 0.0603	  33.034   10.188  -10.376
3028 2 37 0.0603	  33.884    8.668  -10.736
3029 2 37 0.0603	  32.614    8.728   -9.486
3030 2 2 0.5973	  33.964   10.478   -7.746
3031 2 60 -0.5679	  34.354   11.628   -7.586
3032 2 51 -0.5163	  33.194    9.868   -6.846
3033 2 34 0.2936	  32.934    8.908   -7.026
3034 2 23 0.0397	  32.594   10.518   -5.666
3035 2 38 0.1105	  31.994   11.368   -5.996
3036 2 30 0.056	  31.674    9.488   -5.006
3037 2 37 -0.0173	  31.394    9.828   -4.006
3038 2 37 -0.0173	  32.214    8.548   -4.886
3039 2 30 0.0136	  30.394    9.218   -5.816
3040 2 37 -0.0425	  29.774    8.498   -5.266
3041 2 37 -0.0425	  30.654    8.768   -6.766
3042 2 15 0.8054	  29.554   10.478   -6.026
3043 2 61 -0.8188	  29.134   10.708   -7.196
3044 2 61 -0.8188	  29.244   11.158   -5.026
3045 2 2 0.5366	  33.584   11.078   -4.636
3046 2 60 -0.5819	  33.214   11.948   -3.846
3047 2 51 -0.4157	  34.844   10.638   -4.616
3048 2 34 0.2719	  35.124    9.938   -5.286
3049 2 23 -0.0252	  35.864   11.198   -3.716
3050 2 38 0.0698	  35.384   11.818   -2.946
3051 2 38 0.0698	  36.524   11.848   -4.286
3052 2 2 0.5973	  36.724   10.198   -2.956
3053 2 60 -0.5679	  37.664   10.608   -2.276
3054 2 51 -0.4157	  36.454    8.898   -3.066
3055 2 34 0.2719	  35.644    8.598   -3.596
3056 2 23 0.0213	  37.304    7.878   -2.476
3057 2 38 0.1124	  37.424    8.088   -1.406
3058 2 30 -0.1231	  36.624    6.518   -2.626
3059 2 38 0.1112	  37.254    5.748   -2.186
3060 2 38 0.1112	  36.484    6.288   -3.686
3061 2 68 -0.3119	  35.004    6.528   -1.796
3062 2 36 0.1933	  34.694    5.238   -1.976
3063 2 2 0.5973	  38.704    7.908   -3.136
3064 2 60 -0.5679	  38.804    7.808   -4.366
3065 2 51 -0.5163	  39.784    8.008   -2.346
3066 2 34 0.2936	  39.634    8.088   -1.346
3067 2 23 0.0381	  41.184    8.018   -2.836
3068 2 38 0.088	  41.204    8.638   -3.736
3069 2 30 -0.0303	  42.134    8.688   -1.816
3070 2 37 -0.0122	  42.254    8.038   -0.946
3071 2 37 -0.0122	  41.664    9.608   -1.466
3072 2 15 0.7994	  43.534    9.068   -2.356
3073 2 61 -0.8014	  43.944    8.618   -3.446
3074 2 61 -0.8014	  44.194    9.908   -1.696
3075 2 2 0.5366	  41.604    6.608   -3.256
3076 2 60 -0.5819	  42.384    5.918   -2.586
3077 2 51 -0.4157	  40.984    6.128   -4.336
3078 2 34 0.2719	  40.274    6.728   -4.746
3079 2 23 -0.0597	  41.214    4.828   -4.956
3080 2 38 0.0869	  41.684    4.178   -4.216
3081 2 31 0.1303	  39.894    4.148   -5.386
3082 2 37 0.0187	  39.424    4.778   -6.146
3083 2 20 -0.3204	  40.194    2.768   -5.996
3084 2 37 0.0882	  39.284    2.338   -6.436
3085 2 37 0.0882	  40.944    2.838   -6.786
3086 2 37 0.0882	  40.574    2.088   -5.226
3087 2 30 -0.043	  38.924    3.978   -4.206
3088 2 37 0.0236	  38.854    4.908   -3.646
3089 2 37 0.0236	  39.324    3.208   -3.546
3090 2 20 -0.066	  37.494    3.578   -4.606
3091 2 37 0.0186	  36.874    3.548   -3.716
3092 2 37 0.0186	  37.084    4.328   -5.286
3093 2 37 0.0186	  37.474    2.598   -5.076
3094 2 2 0.5973	  42.174    5.018   -6.126
3095 2 60 -0.5679	  41.844    5.628   -7.156
3096 2 51 -0.4157	  43.374    4.458   -6.016
3097 2 34 0.2719	  43.574    3.988   -5.146
3098 2 23 -0.0389	  44.234    4.178   -7.156
3099 2 38 0.1007	  44.064    4.908   -7.946
3100 2 31 0.3654	  45.704    4.298   -6.746
3101 2 38 0.0043	  45.904    3.678   -5.876
3102 2 20 -0.2438	  46.634    3.878   -7.876
3103 2 37 0.0642	  47.674    4.098   -7.606
3104 2 37 0.0642	  46.544    2.818   -8.086
3105 2 37 0.0642	  46.374    4.448   -8.776
3106 2 63 -0.6761	  46.014    5.638   -6.466
3107 2 35 0.4102	  45.734    5.838   -5.576
3108 2 2 0.5973	  43.894    2.788   -7.696
3109 2 60 -0.5679	  44.004    1.808   -6.976
3110 2 51 -0.4157	  43.454    2.678   -8.956
3111 2 34 0.2719	  43.454    3.498   -9.546
3112 2 23 -0.0597	  43.254    1.378   -9.626
3113 2 38 0.0869	  43.204    0.588   -8.876
3114 2 31 0.1303	  41.934    1.338  -10.426
3115 2 37 0.0187	  41.974    2.118  -11.176
3116 2 20 -0.3204	  41.764   -0.002  -11.176
3117 2 37 0.0882	  40.844    0.018  -11.766
3118 2 37 0.0882	  42.584   -0.152  -11.876
3119 2 37 0.0882	  41.734   -0.832  -10.476
3120 2 30 -0.043	  40.694    1.608   -9.536
3121 2 37 0.0236	  40.884    2.488   -8.926
3122 2 37 0.0236	  40.534    0.768   -8.856
3123 2 20 -0.066	  39.404    1.898  -10.306
3124 2 37 0.0186	  38.644    2.258   -9.626
3125 2 37 0.0186	  39.584    2.658  -11.066
3126 2 37 0.0186	  39.034    0.988  -10.786
3127 2 2 0.5973	  44.484    1.118  -10.506
3128 2 60 -0.5679	  44.994    2.028  -11.166
3129 2 51 -0.4157	  44.944   -0.132  -10.546
3130 2 34 0.2719	  44.534   -0.812   -9.926
3131 2 23 -0.0597	  45.994   -0.612  -11.446
3132 2 38 0.0869	  46.164    0.108  -12.236
3133 2 31 0.1303	  47.324   -0.842  -10.696
3134 2 37 0.0187	  47.174   -1.642   -9.966
3135 2 20 -0.3204	  48.394   -1.312  -11.696
3136 2 37 0.0882	  49.334   -1.522  -11.176
3137 2 37 0.0882	  48.094   -2.232  -12.186
3138 2 37 0.0882	  48.564   -0.532  -12.446
3139 2 30 -0.043	  47.794    0.418   -9.926
3140 2 37 0.0236	  46.984    0.788   -9.306
3141 2 37 0.0236	  48.064    1.198  -10.646
3142 2 20 -0.066	  48.984    0.188   -8.986
3143 2 37 0.0186	  49.134    1.088   -8.386
3144 2 37 0.0186	  48.774   -0.652   -8.326
3145 2 37 0.0186	  49.884   -0.002   -9.566
3146 2 2 0.5973	  45.454   -1.892  -12.096
3147 2 60 -0.5679	  45.154   -2.852  -11.386
3148 2 51 -0.4157	  45.294   -1.892  -13.416
3149 2 34 0.2719	  45.614   -1.092  -13.946
3150 2 23 -0.0518	  44.874   -3.062  -14.186
3151 2 38 0.0922	  44.524   -3.842  -13.516
3152 2 30 -0.1102	  43.724   -2.692  -15.156
3153 2 37 0.0457	  43.384   -3.602  -15.646
3154 2 37 0.0457	  44.124   -2.032  -15.916
3155 2 31 0.3531	  42.524   -2.002  -14.496
3156 2 37 -0.0361	  42.844   -1.062  -14.046
3157 2 20 -0.4121	  41.484   -1.652  -15.566
3158 2 37 0.1	  40.714   -1.032  -15.116
3159 2 37 0.1	  41.954   -1.112  -16.376
3160 2 37 0.1	  41.034   -2.572  -15.956
3161 2 20 -0.4121	  41.864   -2.862  -13.426
3162 2 37 0.1	  40.964   -2.372  -13.046
3163 2 37 0.1	  41.594   -3.832  -13.836
3164 2 37 0.1	  42.554   -3.002  -12.596
3165 2 2 0.5973	  46.064   -3.602  -14.976
3166 2 60 -0.5679	  46.834   -2.802  -15.526
3167 2 51 -0.3821	  46.194   -4.922  -15.076
3168 2 34 0.2681	  45.564   -5.522  -14.556
3169 2 23 -0.2722	  47.254   -5.562  -15.856
3170 2 38 0.1304	  47.464   -4.932  -16.716
3171 2 30 0.1123	  48.544   -5.612  -15.026
3172 2 38 0.0813	  48.774   -4.602  -14.696
3173 2 38 0.0813	  49.364   -5.982  -15.646
3174 2 63 -0.6514	  48.434   -6.442  -13.886
3175 2 35 0.4474	  48.454   -7.352  -14.196
3176 2 2 0.8113	  46.864   -6.912  -16.466
3177 2 61 -0.8132	  47.744   -7.472  -17.166
3178 2 61 -0.8132	  45.714   -7.362  -16.296

